@relation 'x'
@attribute 'process.b1.capacity' numeric
@attribute 'process.b2.capacity' numeric
@attribute 'process.b3.capacity' numeric
@attribute 'process.b4.capacity' numeric
@attribute 'property.price' numeric
@attribute 'property.product' {'1','2','3','4','5','6'}
@attribute 'property.winner' {'0','1','2','3','4'}
@attribute 'verification.result' {FALSE, TRUE}
@attribute 'verification.time' numeric
@data
0,0,2,1,59,"1","0","FALSE",163.316666666667
0,0,2,1,59,"2","0","FALSE",200.86
0,0,2,1,59,"4","0","FALSE",154.888888888889
0,0,2,1,59,"6","0","FALSE",108.64
0,0,2,1,60,"1","0","TRUE",85.4666666666667
0,0,2,1,60,"1","3","TRUE",82
0,0,2,1,60,"1","4","FALSE",154.25
0,0,2,1,60,"2","0","TRUE",80.95
0,0,2,1,60,"2","3","TRUE",78
0,0,2,1,60,"2","4","FALSE",197.01
0,0,2,1,60,"4","0","TRUE",80.25
0,0,2,1,60,"4","3","TRUE",77.9166666666667
0,0,2,1,60,"4","4","FALSE",144.694444444444
0,0,2,1,60,"6","0","TRUE",88.12
0,0,2,1,60,"6","3","TRUE",78.84
0,0,2,1,60,"6","4","TRUE",78.15
0,0,2,1,69,"3","0","FALSE",112.05
0,0,2,1,69,"5","0","FALSE",322.055555555556
0,0,2,1,70,"3","0","TRUE",87.1
0,0,2,1,70,"3","3","TRUE",97.11
0,0,2,1,70,"3","4","TRUE",80.86
0,0,2,1,70,"5","0","TRUE",194.438888888889
0,0,2,1,70,"5","3","FALSE",378.822222222222
0,0,2,1,70,"5","4","TRUE",207.772222222222
0,1,1,1,59,"1","0","FALSE",646.675
0,1,1,1,59,"4","0","FALSE",564.634615384615
0,1,1,1,59,"6","0","FALSE",248.216666666667
0,1,1,1,60,"1","0","FALSE",578.625
0,1,1,1,60,"4","0","FALSE",523.961538461538
0,1,1,1,60,"6","0","TRUE",90
0,1,1,1,60,"6","2","TRUE",94.5833333333333
0,1,1,1,60,"6","3","FALSE",243.516666666667
0,1,1,1,60,"6","4","FALSE",225.05
0,1,1,1,61,"1","0","FALSE",608.2
0,1,1,1,61,"4","0","FALSE",546.346153846154
0,1,1,1,62,"1","0","FALSE",596.475
0,1,1,1,62,"4","0","FALSE",554.115384615385
0,1,1,1,63,"1","0","FALSE",603.65
0,1,1,1,63,"4","0","FALSE",553.769230769231
0,1,1,1,64,"1","0","FALSE",532.8
0,1,1,1,64,"4","0","FALSE",483.461538461538
0,1,1,1,65,"1","0","FALSE",567.975
0,1,1,1,65,"4","0","FALSE",505.961538461538
0,1,1,1,66,"1","0","FALSE",564.3
0,1,1,1,66,"4","0","FALSE",496.173076923077
0,1,1,1,67,"1","0","FALSE",588.9
0,1,1,1,67,"4","0","FALSE",522.634615384615
0,1,1,1,68,"1","0","FALSE",537.075
0,1,1,1,68,"4","0","FALSE",481.653846153846
0,1,1,1,69,"1","0","FALSE",544.05
0,1,1,1,69,"3","0","FALSE",178.4
0,1,1,1,69,"4","0","FALSE",512.346153846154
0,1,1,1,69,"5","0","FALSE",751.1875
0,1,1,1,70,"1","0","TRUE",518.2
0,1,1,1,70,"1","2","TRUE",547.725
0,1,1,1,70,"1","3","FALSE",602.125
0,1,1,1,70,"1","4","FALSE",588.2
0,1,1,1,70,"3","0","TRUE",153.516666666667
0,1,1,1,70,"3","2","TRUE",151.133333333333
0,1,1,1,70,"3","3","FALSE",165.416666666667
0,1,1,1,70,"3","4","FALSE",176.716666666667
0,1,1,1,70,"4","0","TRUE",418.057692307692
0,1,1,1,70,"4","2","TRUE",451.153846153846
0,1,1,1,70,"4","3","FALSE",529.076923076923
0,1,1,1,70,"4","4","FALSE",518.365384615385
0,1,1,1,70,"5","0","FALSE",739.475
0,1,1,1,71,"5","0","FALSE",751.9875
0,1,1,1,72,"5","0","FALSE",740.4125
0,1,1,1,73,"5","0","FALSE",719.45
0,1,1,1,74,"5","0","FALSE",745.5375
0,1,1,1,75,"5","0","FALSE",734.5625
0,1,1,1,76,"5","0","FALSE",752.3
0,1,1,1,77,"5","0","FALSE",725.55
0,1,1,1,78,"5","0","FALSE",742.825
0,1,1,1,79,"5","0","FALSE",723.8125
0,1,1,1,80,"5","0","TRUE",101.7375
0,1,1,1,80,"5","2","FALSE",770.2375
0,1,1,1,80,"5","3","FALSE",770.75
0,1,1,1,80,"5","4","TRUE",106.3375
0,1,2,0,59,"1","0","FALSE",513.233333333333
0,1,2,0,59,"2","0","FALSE",1527.53
0,1,2,0,59,"4","0","FALSE",476.322222222222
0,1,2,0,59,"6","0","FALSE",145.4
0,1,2,0,60,"1","0","FALSE",443.016666666667
0,1,2,0,60,"2","0","FALSE",1137.465
0,1,2,0,60,"4","0","FALSE",419.855555555556
0,1,2,0,60,"6","0","TRUE",91.805
0,1,2,0,60,"6","2","TRUE",85.25
0,1,2,0,60,"6","3","FALSE",134.325
0,1,2,0,61,"1","0","FALSE",462.058333333333
0,1,2,0,61,"2","0","FALSE",1293.665
0,1,2,0,61,"4","0","FALSE",441.838888888889
0,1,2,0,62,"1","0","FALSE",463.708333333333
0,1,2,0,62,"2","0","FALSE",1245.215
0,1,2,0,62,"4","0","FALSE",434.75
0,1,2,0,63,"1","0","FALSE",463.075
0,1,2,0,63,"2","0","FALSE",1290.88
0,1,2,0,63,"4","0","FALSE",455.266666666667
0,1,2,0,64,"1","0","FALSE",389.3
0,1,2,0,64,"2","0","FALSE",991.07
0,1,2,0,64,"4","0","FALSE",362.811111111111
0,1,2,0,65,"1","0","FALSE",411.825
0,1,2,0,65,"2","0","FALSE",1106.455
0,1,2,0,65,"4","0","FALSE",384.338888888889
0,1,2,0,66,"1","0","FALSE",398.483333333333
0,1,2,0,66,"2","0","FALSE",1098.255
0,1,2,0,66,"4","0","FALSE",377.394444444444
0,1,2,0,67,"1","0","FALSE",428.833333333333
0,1,2,0,67,"2","0","FALSE",1236.05
0,1,2,0,67,"4","0","FALSE",417.138888888889
0,1,2,0,68,"1","0","FALSE",395.458333333333
0,1,2,0,68,"2","0","FALSE",917.335
0,1,2,0,68,"4","0","FALSE",363.255555555556
0,1,2,0,69,"1","0","FALSE",412.666666666667
0,1,2,0,69,"2","0","FALSE",1020.25
0,1,2,0,69,"3","0","FALSE",109.71
0,1,2,0,69,"4","0","FALSE",399.277777777778
0,1,2,0,70,"1","0","TRUE",383.191666666667
0,1,2,0,70,"1","2","TRUE",412.525
0,1,2,0,70,"1","3","FALSE",455.616666666667
0,1,2,0,70,"2","0","FALSE",1013.485
0,1,2,0,70,"3","0","TRUE",101.765
0,1,2,0,70,"3","2","TRUE",94.635
0,1,2,0,70,"3","3","FALSE",99.945
0,1,2,0,70,"4","0","TRUE",348.155555555556
0,1,2,0,70,"4","2","TRUE",375.733333333333
0,1,2,0,70,"4","3","FALSE",429.938888888889
0,1,2,0,71,"2","0","FALSE",1123.56
0,1,2,0,72,"2","0","FALSE",1087.23
0,1,2,0,73,"2","0","FALSE",1260.775
0,1,2,0,74,"2","0","FALSE",1203.43
0,1,2,0,75,"2","0","FALSE",1345.56
0,1,2,0,76,"2","0","FALSE",979.395
0,1,2,0,77,"2","0","FALSE",1127.495
0,1,2,0,78,"2","0","FALSE",1113.075
0,1,2,0,79,"2","0","FALSE",1276.795
0,1,2,0,80,"2","0","TRUE",119.28
0,1,2,0,80,"2","2","TRUE",312.645
0,1,2,0,80,"2","3","TRUE",120.82
0,1,2,1,59,"1","0","FALSE",665.22619047619
0,1,2,1,59,"2","0","FALSE",1716.80714285714
0,1,2,1,59,"4","0","FALSE",585.787037037037
0,1,2,1,59,"6","0","FALSE",256.542857142857
0,1,2,1,60,"1","0","FALSE",616.916666666667
0,1,2,1,60,"2","0","FALSE",1300.96428571429
0,1,2,1,60,"4","0","FALSE",552.861111111111
0,1,2,1,60,"6","0","TRUE",92.2428571428571
0,1,2,1,60,"6","2","TRUE",94.5571428571429
0,1,2,1,60,"6","3","FALSE",249.078571428571
0,1,2,1,60,"6","4","FALSE",228.842857142857
0,1,2,1,61,"1","0","FALSE",640.511904761905
0,1,2,1,61,"2","0","FALSE",1411.16428571429
0,1,2,1,61,"4","0","FALSE",565.703703703704
0,1,2,1,62,"1","0","FALSE",628.72619047619
0,1,2,1,62,"2","0","FALSE",1390.74285714286
0,1,2,1,62,"4","0","FALSE",572.435185185185
0,1,2,1,63,"1","0","FALSE",628.702380952381
0,1,2,1,63,"2","0","FALSE",1417.62857142857
0,1,2,1,63,"4","0","FALSE",571.805555555556
0,1,2,1,64,"1","0","FALSE",560.142857142857
0,1,2,1,64,"2","0","FALSE",1187.63571428571
0,1,2,1,64,"4","0","FALSE",497.407407407407
0,1,2,1,65,"1","0","FALSE",586.333333333333
0,1,2,1,65,"2","0","FALSE",1317.15
0,1,2,1,65,"4","0","FALSE",519.203703703704
0,1,2,1,66,"1","0","FALSE",576.392857142857
0,1,2,1,66,"2","0","FALSE",1299.52857142857
0,1,2,1,66,"4","0","FALSE",516.675925925926
0,1,2,1,67,"1","0","FALSE",598.535714285714
0,1,2,1,67,"2","0","FALSE",1455.37857142857
0,1,2,1,67,"4","0","FALSE",542.074074074074
0,1,2,1,68,"1","0","FALSE",557.428571428571
0,1,2,1,68,"2","0","FALSE",1113.72142857143
0,1,2,1,68,"4","0","FALSE",492.25
0,1,2,1,69,"1","0","FALSE",573.964285714286
0,1,2,1,69,"2","0","FALSE",1208.77857142857
0,1,2,1,69,"3","0","FALSE",184.721428571429
0,1,2,1,69,"4","0","FALSE",522.990740740741
0,1,2,1,69,"5","0","FALSE",763.094444444444
0,1,2,1,70,"1","0","TRUE",528.535714285714
0,1,2,1,70,"1","2","TRUE",577.559523809524
0,1,2,1,70,"1","3","FALSE",630.357142857143
0,1,2,1,70,"1","4","FALSE",607.785714285714
0,1,2,1,70,"2","0","FALSE",1209.72142857143
0,1,2,1,70,"3","0","TRUE",159.65
0,1,2,1,70,"3","2","TRUE",154.2
0,1,2,1,70,"3","3","FALSE",178.55
0,1,2,1,70,"3","4","FALSE",184.578571428571
0,1,2,1,70,"4","0","TRUE",435.490740740741
0,1,2,1,70,"4","2","TRUE",468.87037037037
0,1,2,1,70,"4","3","FALSE",561.685185185185
0,1,2,1,70,"4","4","FALSE",543.657407407407
0,1,2,1,70,"5","0","FALSE",758.116666666667
0,1,2,1,71,"2","0","FALSE",1341.26428571429
0,1,2,1,71,"5","0","FALSE",762.522222222222
0,1,2,1,72,"2","0","FALSE",1276.27857142857
0,1,2,1,72,"5","0","FALSE",744.561111111111
0,1,2,1,73,"2","0","FALSE",1459.33571428571
0,1,2,1,73,"5","0","FALSE",727.566666666667
0,1,2,1,74,"2","0","FALSE",1393.12142857143
0,1,2,1,74,"5","0","FALSE",748.572222222222
0,1,2,1,75,"2","0","FALSE",1550.77857142857
0,1,2,1,75,"5","0","FALSE",735.544444444444
0,1,2,1,76,"2","0","FALSE",1171.97142857143
0,1,2,1,76,"5","0","FALSE",740.777777777778
0,1,2,1,77,"2","0","FALSE",1309.61428571429
0,1,2,1,77,"5","0","FALSE",734.844444444444
0,1,2,1,78,"2","0","FALSE",1316.18571428571
0,1,2,1,78,"5","0","FALSE",736.183333333333
0,1,2,1,79,"2","0","FALSE",1480.92142857143
0,1,2,1,79,"5","0","FALSE",742.344444444444
0,1,2,1,80,"2","0","TRUE",126.507142857143
0,1,2,1,80,"2","2","TRUE",369.978571428571
0,1,2,1,80,"2","3","TRUE",130.664285714286
0,1,2,1,80,"2","4","FALSE",1386.15714285714
0,1,2,1,80,"5","0","TRUE",102.616666666667
0,1,2,1,80,"5","2","FALSE",783.372222222222
0,1,2,1,80,"5","3","FALSE",782.688888888889
0,1,2,1,80,"5","4","TRUE",105.6
0,2,1,0,59,"1","0","FALSE",522.525
0,2,1,0,59,"4","0","FALSE",466.4625
0,2,1,0,59,"6","0","FALSE",144.525
0,2,1,0,60,"1","0","FALSE",447.9
0,2,1,0,60,"4","0","FALSE",412.4125
0,2,1,0,60,"6","0","TRUE",93.575
0,2,1,0,60,"6","2","TRUE",87.55
0,2,1,0,60,"6","3","FALSE",132.325
0,2,1,0,61,"1","0","FALSE",468.8
0,2,1,0,61,"4","0","FALSE",429.3125
0,2,1,0,62,"1","0","FALSE",476.3
0,2,1,0,62,"4","0","FALSE",431.5625
0,2,1,0,63,"1","0","FALSE",471.675
0,2,1,0,63,"4","0","FALSE",447.0125
0,2,1,0,64,"1","0","FALSE",394.275
0,2,1,0,64,"4","0","FALSE",351.3625
0,2,1,0,65,"1","0","FALSE",410.15
0,2,1,0,65,"4","0","FALSE",379.2375
0,2,1,0,66,"1","0","FALSE",399.35
0,2,1,0,66,"4","0","FALSE",375.925
0,2,1,0,67,"1","0","FALSE",434.025
0,2,1,0,67,"4","0","FALSE",406.8
0,2,1,0,68,"1","0","FALSE",391.625
0,2,1,0,68,"4","0","FALSE",357.725
0,2,1,0,69,"1","0","FALSE",411.95
0,2,1,0,69,"3","0","FALSE",105.425
0,2,1,0,69,"4","0","FALSE",395.3875
0,2,1,0,70,"1","0","TRUE",377.325
0,2,1,0,70,"1","2","TRUE",418.6
0,2,1,0,70,"1","3","FALSE",446.125
0,2,1,0,70,"3","0","TRUE",98.975
0,2,1,0,70,"3","2","TRUE",94.275
0,2,1,0,70,"3","3","FALSE",100.6
0,2,1,0,70,"4","0","TRUE",345
0,2,1,0,70,"4","2","TRUE",367
0,2,1,0,70,"4","3","FALSE",420.625
0,2,1,1,59,"1","0","FALSE",654.78125
0,2,1,1,59,"4","0","FALSE",570.270833333333
0,2,1,1,59,"6","0","FALSE",257.166666666667
0,2,1,1,60,"1","0","FALSE",607.625
0,2,1,1,60,"4","0","FALSE",544.770833333333
0,2,1,1,60,"6","0","TRUE",92.75
0,2,1,1,60,"6","2","TRUE",95.9722222222222
0,2,1,1,60,"6","3","FALSE",245.361111111111
0,2,1,1,60,"6","4","FALSE",230.75
0,2,1,1,61,"1","0","FALSE",623
0,2,1,1,61,"4","0","FALSE",550.020833333333
0,2,1,1,62,"1","0","FALSE",620.375
0,2,1,1,62,"4","0","FALSE",551.4375
0,2,1,1,63,"1","0","FALSE",624.25
0,2,1,1,63,"4","0","FALSE",550.0625
0,2,1,1,64,"1","0","FALSE",559.21875
0,2,1,1,64,"4","0","FALSE",488.895833333333
0,2,1,1,65,"1","0","FALSE",578.25
0,2,1,1,65,"4","0","FALSE",489.4375
0,2,1,1,66,"1","0","FALSE",568.4375
0,2,1,1,66,"4","0","FALSE",486.645833333333
0,2,1,1,67,"1","0","FALSE",608.3125
0,2,1,1,67,"4","0","FALSE",526.583333333333
0,2,1,1,68,"1","0","FALSE",560.65625
0,2,1,1,68,"4","0","FALSE",485.833333333333
0,2,1,1,69,"1","0","FALSE",581.90625
0,2,1,1,69,"3","0","FALSE",177.75
0,2,1,1,69,"4","0","FALSE",512.520833333333
0,2,1,1,69,"5","0","FALSE",745.525
0,2,1,1,70,"1","0","TRUE",523.40625
0,2,1,1,70,"1","2","TRUE",574.21875
0,2,1,1,70,"1","3","FALSE",609.34375
0,2,1,1,70,"1","4","FALSE",597.875
0,2,1,1,70,"3","0","TRUE",156.944444444444
0,2,1,1,70,"3","2","TRUE",148.972222222222
0,2,1,1,70,"3","3","FALSE",172.166666666667
0,2,1,1,70,"3","4","FALSE",180.722222222222
0,2,1,1,70,"4","0","TRUE",429.125
0,2,1,1,70,"4","2","TRUE",457.395833333333
0,2,1,1,70,"4","3","FALSE",563.0625
0,2,1,1,70,"4","4","FALSE",541.458333333333
0,2,1,1,70,"5","0","FALSE",756.35
0,2,1,1,71,"5","0","FALSE",750.65
0,2,1,1,72,"5","0","FALSE",739.6
0,2,1,1,73,"5","0","FALSE",727.05
0,2,1,1,74,"5","0","FALSE",758.275
0,2,1,1,75,"5","0","FALSE",724.4
0,2,1,1,76,"5","0","FALSE",736.95
0,2,1,1,77,"5","0","FALSE",741.675
0,2,1,1,78,"5","0","FALSE",781.25
0,2,1,1,79,"5","0","FALSE",736.225
0,2,1,1,80,"5","0","TRUE",103.975
0,2,1,1,80,"5","2","FALSE",779.025
0,2,1,1,80,"5","3","FALSE",771.8
0,2,1,1,80,"5","4","TRUE",104.5
0,2,2,0,59,"1","0","FALSE",511.479166666667
0,2,2,0,59,"2","0","FALSE",1525.91071428571
0,2,2,0,59,"4","0","FALSE",478.041666666667
0,2,2,0,59,"6","0","FALSE",144.303571428571
0,2,2,0,60,"1","0","FALSE",442.25
0,2,2,0,60,"2","0","FALSE",1135.27678571429
0,2,2,0,60,"4","0","FALSE",413.9375
0,2,2,0,60,"6","0","TRUE",90.4464285714286
0,2,2,0,60,"6","2","TRUE",85.5803571428571
0,2,2,0,60,"6","3","FALSE",134.785714285714
0,2,2,0,61,"1","0","FALSE",459.822916666667
0,2,2,0,61,"2","0","FALSE",1283.66964285714
0,2,2,0,61,"4","0","FALSE",438.319444444444
0,2,2,0,62,"1","0","FALSE",456.28125
0,2,2,0,62,"2","0","FALSE",1246.28571428571
0,2,2,0,62,"4","0","FALSE",437.1875
0,2,2,0,63,"1","0","FALSE",462.78125
0,2,2,0,63,"2","0","FALSE",1302.47321428571
0,2,2,0,63,"4","0","FALSE",454.069444444444
0,2,2,0,64,"1","0","FALSE",387.135416666667
0,2,2,0,64,"2","0","FALSE",1001.14285714286
0,2,2,0,64,"4","0","FALSE",358.861111111111
0,2,2,0,65,"1","0","FALSE",412.072916666667
0,2,2,0,65,"2","0","FALSE",1101.66071428571
0,2,2,0,65,"4","0","FALSE",384.402777777778
0,2,2,0,66,"1","0","FALSE",389.625
0,2,2,0,66,"2","0","FALSE",1109.48214285714
0,2,2,0,66,"4","0","FALSE",384.277777777778
0,2,2,0,67,"1","0","FALSE",420.520833333333
0,2,2,0,67,"2","0","FALSE",1233.27678571429
0,2,2,0,67,"4","0","FALSE",420.5625
0,2,2,0,68,"1","0","FALSE",383.677083333333
0,2,2,0,68,"2","0","FALSE",910.696428571429
0,2,2,0,68,"4","0","FALSE",364.569444444444
0,2,2,0,69,"1","0","FALSE",408.9375
0,2,2,0,69,"2","0","FALSE",1011.96428571429
0,2,2,0,69,"3","0","FALSE",111.116071428571
0,2,2,0,69,"4","0","FALSE",394.076388888889
0,2,2,0,70,"1","0","TRUE",376.822916666667
0,2,2,0,70,"1","2","TRUE",417.822916666667
0,2,2,0,70,"1","3","FALSE",448.364583333333
0,2,2,0,70,"2","0","FALSE",1018.71428571429
0,2,2,0,70,"3","0","TRUE",103.473214285714
0,2,2,0,70,"3","2","TRUE",96.5178571428571
0,2,2,0,70,"3","3","FALSE",103.848214285714
0,2,2,0,70,"4","0","TRUE",344.645833333333
0,2,2,0,70,"4","2","TRUE",369.916666666667
0,2,2,0,70,"4","3","FALSE",431.402777777778
0,2,2,0,71,"2","0","FALSE",1120.41071428571
0,2,2,0,72,"2","0","FALSE",1082.26785714286
0,2,2,0,73,"2","0","FALSE",1238.52678571429
0,2,2,0,74,"2","0","FALSE",1198.07142857143
0,2,2,0,75,"2","0","FALSE",1337.20535714286
0,2,2,0,76,"2","0","FALSE",981.241071428571
0,2,2,0,77,"2","0","FALSE",1129.60714285714
0,2,2,0,78,"2","0","FALSE",1101.48214285714
0,2,2,0,79,"2","0","FALSE",1285.41071428571
0,2,2,0,80,"2","0","TRUE",116.821428571429
0,2,2,0,80,"2","2","TRUE",311.973214285714
0,2,2,0,80,"2","3","TRUE",123.607142857143
0,2,2,1,59,"1","0","FALSE",678.703703703704
0,2,2,1,59,"2","0","FALSE",1706.03787878788
0,2,2,1,59,"4","0","FALSE",583.076388888889
0,2,2,1,59,"6","0","FALSE",254.765151515152
0,2,2,1,60,"1","0","FALSE",620.5
0,2,2,1,60,"2","0","FALSE",1310.68181818182
0,2,2,1,60,"4","0","FALSE",555.909722222222
0,2,2,1,60,"6","0","TRUE",91.2575757575758
0,2,2,1,60,"6","2","TRUE",93.2121212121212
0,2,2,1,60,"6","3","FALSE",245.25
0,2,2,1,60,"6","4","FALSE",227.280303030303
0,2,2,1,61,"1","0","FALSE",641.87037037037
0,2,2,1,61,"2","0","FALSE",1420.04545454545
0,2,2,1,61,"4","0","FALSE",570.340277777778
0,2,2,1,62,"1","0","FALSE",638.212962962963
0,2,2,1,62,"2","0","FALSE",1396.84848484848
0,2,2,1,62,"4","0","FALSE",574.090277777778
0,2,2,1,63,"1","0","FALSE",644.009259259259
0,2,2,1,63,"2","0","FALSE",1436.79545454545
0,2,2,1,63,"4","0","FALSE",584.305555555556
0,2,2,1,64,"1","0","FALSE",569.861111111111
0,2,2,1,64,"2","0","FALSE",1201.81818181818
0,2,2,1,64,"4","0","FALSE",499.555555555556
0,2,2,1,65,"1","0","FALSE",596.62037037037
0,2,2,1,65,"2","0","FALSE",1301.30303030303
0,2,2,1,65,"4","0","FALSE",524.805555555556
0,2,2,1,66,"1","0","FALSE",581.611111111111
0,2,2,1,66,"2","0","FALSE",1301.05303030303
0,2,2,1,66,"4","0","FALSE",506.972222222222
0,2,2,1,67,"1","0","FALSE",619.657407407407
0,2,2,1,67,"2","0","FALSE",1454.2803030303
0,2,2,1,67,"4","0","FALSE",544.104166666667
0,2,2,1,68,"1","0","FALSE",574.703703703704
0,2,2,1,68,"2","0","FALSE",1110.7803030303
0,2,2,1,68,"4","0","FALSE",504.145833333333
0,2,2,1,69,"1","0","FALSE",590.574074074074
0,2,2,1,69,"2","0","FALSE",1224.41666666667
0,2,2,1,69,"3","0","FALSE",186.204545454545
0,2,2,1,69,"4","0","FALSE",531.340277777778
0,2,2,1,69,"5","0","FALSE",756.583333333333
0,2,2,1,70,"1","0","TRUE",548.712962962963
0,2,2,1,70,"1","2","TRUE",596.287037037037
0,2,2,1,70,"1","3","FALSE",636.111111111111
0,2,2,1,70,"1","4","FALSE",629.203703703704
0,2,2,1,70,"2","0","FALSE",1214.32575757576
0,2,2,1,70,"3","0","TRUE",160.174242424242
0,2,2,1,70,"3","2","TRUE",154.416666666667
0,2,2,1,70,"3","3","FALSE",176.545454545455
0,2,2,1,70,"3","4","FALSE",186.856060606061
0,2,2,1,70,"4","0","TRUE",443.486111111111
0,2,2,1,70,"4","2","TRUE",478.520833333333
0,2,2,1,70,"4","3","FALSE",567.465277777778
0,2,2,1,70,"4","4","FALSE",552.034722222222
0,2,2,1,70,"5","0","FALSE",762.638888888889
0,2,2,1,71,"2","0","FALSE",1325.93181818182
0,2,2,1,71,"5","0","FALSE",760.201388888889
0,2,2,1,72,"2","0","FALSE",1279.17424242424
0,2,2,1,72,"5","0","FALSE",746.965277777778
0,2,2,1,73,"2","0","FALSE",1451.65909090909
0,2,2,1,73,"5","0","FALSE",729.590277777778
0,2,2,1,74,"2","0","FALSE",1407.87121212121
0,2,2,1,74,"5","0","FALSE",758.284722222222
0,2,2,1,75,"2","0","FALSE",1557.20454545455
0,2,2,1,75,"5","0","FALSE",751.152777777778
0,2,2,1,76,"2","0","FALSE",1185.15151515152
0,2,2,1,76,"5","0","FALSE",748.173611111111
0,2,2,1,77,"2","0","FALSE",1322.49242424242
0,2,2,1,77,"5","0","FALSE",755.979166666667
0,2,2,1,78,"2","0","FALSE",1335.54545454545
0,2,2,1,78,"5","0","FALSE",752.472222222222
0,2,2,1,79,"2","0","FALSE",1494.63636363636
0,2,2,1,79,"5","0","FALSE",742.236111111111
0,2,2,1,80,"2","0","TRUE",129.5
0,2,2,1,80,"2","2","TRUE",379.893939393939
0,2,2,1,80,"2","3","TRUE",133.05303030303
0,2,2,1,80,"2","4","FALSE",1396.31060606061
0,2,2,1,80,"5","0","TRUE",103.159722222222
0,2,2,1,80,"5","2","FALSE",786.069444444444
0,2,2,1,80,"5","3","FALSE",793.326388888889
0,2,2,1,80,"5","4","TRUE",104.944444444444
0,3,1,0,59,"1","0","FALSE",537.875
0,3,1,0,59,"4","0","FALSE",472.208333333333
0,3,1,0,59,"6","0","FALSE",137.875
0,3,1,0,60,"1","0","FALSE",478.125
0,3,1,0,60,"4","0","FALSE",417.375
0,3,1,0,60,"6","0","TRUE",93.25
0,3,1,0,60,"6","2","TRUE",92.5
0,3,1,0,60,"6","3","FALSE",139.125
0,3,1,0,61,"1","0","FALSE",456.875
0,3,1,0,61,"4","0","FALSE",441.291666666667
0,3,1,0,62,"1","0","FALSE",473.375
0,3,1,0,62,"4","0","FALSE",432.25
0,3,1,0,63,"1","0","FALSE",461.5
0,3,1,0,63,"4","0","FALSE",457.291666666667
0,3,1,0,64,"1","0","FALSE",387
0,3,1,0,64,"4","0","FALSE",353.291666666667
0,3,1,0,65,"1","0","FALSE",412.125
0,3,1,0,65,"4","0","FALSE",378.125
0,3,1,0,66,"1","0","FALSE",397
0,3,1,0,66,"4","0","FALSE",374.666666666667
0,3,1,0,67,"1","0","FALSE",439.375
0,3,1,0,67,"4","0","FALSE",415.458333333333
0,3,1,0,68,"1","0","FALSE",400
0,3,1,0,68,"4","0","FALSE",366.875
0,3,1,0,69,"1","0","FALSE",416.25
0,3,1,0,69,"3","0","FALSE",113.875
0,3,1,0,69,"4","0","FALSE",393.833333333333
0,3,1,0,70,"1","0","TRUE",374.625
0,3,1,0,70,"1","2","TRUE",403
0,3,1,0,70,"1","3","FALSE",457.5
0,3,1,0,70,"3","0","TRUE",106.25
0,3,1,0,70,"3","2","TRUE",94
0,3,1,0,70,"3","3","FALSE",97
0,3,1,0,70,"4","0","TRUE",333
0,3,1,0,70,"4","2","TRUE",361.041666666667
0,3,1,0,70,"4","3","FALSE",421.125
0,3,1,1,59,"1","0","FALSE",706.416666666667
0,3,1,1,59,"4","0","FALSE",595.916666666667
0,3,1,1,59,"6","0","FALSE",248.083333333333
0,3,1,1,60,"1","0","FALSE",626.083333333333
0,3,1,1,60,"4","0","FALSE",554.625
0,3,1,1,60,"6","0","TRUE",92.5833333333333
0,3,1,1,60,"6","2","TRUE",95.6666666666667
0,3,1,1,60,"6","3","FALSE",256.833333333333
0,3,1,1,60,"6","4","FALSE",225.25
0,3,1,1,61,"1","0","FALSE",672.75
0,3,1,1,61,"4","0","FALSE",551.708333333333
0,3,1,1,62,"1","0","FALSE",621.833333333333
0,3,1,1,62,"4","0","FALSE",551.375
0,3,1,1,63,"1","0","FALSE",643.416666666667
0,3,1,1,63,"4","0","FALSE",581.291666666667
0,3,1,1,64,"1","0","FALSE",574.666666666667
0,3,1,1,64,"4","0","FALSE",495.25
0,3,1,1,65,"1","0","FALSE",591.083333333333
0,3,1,1,65,"4","0","FALSE",502.875
0,3,1,1,66,"1","0","FALSE",580.5
0,3,1,1,66,"4","0","FALSE",512.958333333333
0,3,1,1,67,"1","0","FALSE",635.333333333333
0,3,1,1,67,"4","0","FALSE",531.875
0,3,1,1,68,"1","0","FALSE",576.833333333333
0,3,1,1,68,"4","0","FALSE",491.583333333333
0,3,1,1,69,"1","0","FALSE",580.833333333333
0,3,1,1,69,"3","0","FALSE",185.916666666667
0,3,1,1,69,"4","0","FALSE",511.083333333333
0,3,1,1,69,"5","0","FALSE",748.166666666667
0,3,1,1,70,"1","0","TRUE",537.083333333333
0,3,1,1,70,"1","2","TRUE",592.833333333333
0,3,1,1,70,"1","3","FALSE",644.916666666667
0,3,1,1,70,"1","4","FALSE",599.166666666667
0,3,1,1,70,"3","0","TRUE",156.833333333333
0,3,1,1,70,"3","2","TRUE",145.75
0,3,1,1,70,"3","3","FALSE",178
0,3,1,1,70,"3","4","FALSE",186.083333333333
0,3,1,1,70,"4","0","TRUE",431.333333333333
0,3,1,1,70,"4","2","TRUE",456.25
0,3,1,1,70,"4","3","FALSE",533.583333333333
0,3,1,1,70,"4","4","FALSE",547.291666666667
0,3,1,1,70,"5","0","FALSE",757.916666666667
0,3,1,1,71,"5","0","FALSE",755.25
0,3,1,1,72,"5","0","FALSE",730.833333333333
0,3,1,1,73,"5","0","FALSE",714.916666666667
0,3,1,1,74,"5","0","FALSE",741
0,3,1,1,75,"5","0","FALSE",722.333333333333
0,3,1,1,76,"5","0","FALSE",704.416666666667
0,3,1,1,77,"5","0","FALSE",717.5
0,3,1,1,78,"5","0","FALSE",741.833333333333
0,3,1,1,79,"5","0","FALSE",713.333333333333
0,3,1,1,80,"5","0","TRUE",102.416666666667
0,3,1,1,80,"5","2","FALSE",755.666666666667
0,3,1,1,80,"5","3","FALSE",777.333333333333
0,3,1,1,80,"5","4","TRUE",103.833333333333
0,3,2,0,59,"1","0","FALSE",521.694444444444
0,3,2,0,59,"2","0","FALSE",1517.08333333333
0,3,2,0,59,"4","0","FALSE",474.638888888889
0,3,2,0,59,"6","0","FALSE",142.5
0,3,2,0,60,"1","0","FALSE",441
0,3,2,0,60,"2","0","FALSE",1159.63888888889
0,3,2,0,60,"4","0","FALSE",411.611111111111
0,3,2,0,60,"6","0","TRUE",88.6944444444444
0,3,2,0,60,"6","2","TRUE",83.9444444444444
0,3,2,0,60,"6","3","FALSE",133.194444444444
0,3,2,0,61,"1","0","FALSE",459.666666666667
0,3,2,0,61,"2","0","FALSE",1291.16666666667
0,3,2,0,61,"4","0","FALSE",442.208333333333
0,3,2,0,62,"1","0","FALSE",473.416666666667
0,3,2,0,62,"2","0","FALSE",1236.08333333333
0,3,2,0,62,"4","0","FALSE",438.486111111111
0,3,2,0,63,"1","0","FALSE",475.305555555556
0,3,2,0,63,"2","0","FALSE",1318.36111111111
0,3,2,0,63,"4","0","FALSE",459.722222222222
0,3,2,0,64,"1","0","FALSE",390.527777777778
0,3,2,0,64,"2","0","FALSE",1024.02777777778
0,3,2,0,64,"4","0","FALSE",354.166666666667
0,3,2,0,65,"1","0","FALSE",413.166666666667
0,3,2,0,65,"2","0","FALSE",1109.27777777778
0,3,2,0,65,"4","0","FALSE",389.305555555556
0,3,2,0,66,"1","0","FALSE",396.305555555556
0,3,2,0,66,"2","0","FALSE",1117.13888888889
0,3,2,0,66,"4","0","FALSE",382.736111111111
0,3,2,0,67,"1","0","FALSE",422
0,3,2,0,67,"2","0","FALSE",1228.47222222222
0,3,2,0,67,"4","0","FALSE",420.097222222222
0,3,2,0,68,"1","0","FALSE",386.25
0,3,2,0,68,"2","0","FALSE",901.361111111111
0,3,2,0,68,"4","0","FALSE",365.972222222222
0,3,2,0,69,"1","0","FALSE",419.333333333333
0,3,2,0,69,"2","0","FALSE",1015.27777777778
0,3,2,0,69,"3","0","FALSE",107.027777777778
0,3,2,0,69,"4","0","FALSE",401.833333333333
0,3,2,0,70,"1","0","TRUE",376.416666666667
0,3,2,0,70,"1","2","TRUE",415.138888888889
0,3,2,0,70,"1","3","FALSE",442.75
0,3,2,0,70,"2","0","FALSE",1009.91666666667
0,3,2,0,70,"3","0","TRUE",99.4166666666667
0,3,2,0,70,"3","2","TRUE",96.2777777777778
0,3,2,0,70,"3","3","FALSE",99.8055555555556
0,3,2,0,70,"4","0","TRUE",345.861111111111
0,3,2,0,70,"4","2","TRUE",371.875
0,3,2,0,70,"4","3","FALSE",433.138888888889
0,3,2,0,71,"2","0","FALSE",1123.69444444444
0,3,2,0,72,"2","0","FALSE",1067.61111111111
0,3,2,0,73,"2","0","FALSE",1249.52777777778
0,3,2,0,74,"2","0","FALSE",1189.44444444444
0,3,2,0,75,"2","0","FALSE",1342.25
0,3,2,0,76,"2","0","FALSE",1001.94444444444
0,3,2,0,77,"2","0","FALSE",1128.83333333333
0,3,2,0,78,"2","0","FALSE",1107.88888888889
0,3,2,0,79,"2","0","FALSE",1272.69444444444
0,3,2,0,80,"2","0","TRUE",119.833333333333
0,3,2,0,80,"2","2","TRUE",316.583333333333
0,3,2,0,80,"2","3","TRUE",127.833333333333
0,3,2,1,59,"1","0","FALSE",688.625
0,3,2,1,59,"2","0","FALSE",1721.23611111111
0,3,2,1,59,"4","0","FALSE",588.491666666667
0,3,2,1,59,"6","0","FALSE",259.527777777778
0,3,2,1,60,"1","0","FALSE",630.916666666667
0,3,2,1,60,"2","0","FALSE",1308.68055555556
0,3,2,1,60,"4","0","FALSE",550.225
0,3,2,1,60,"6","0","TRUE",90.6666666666667
0,3,2,1,60,"6","2","TRUE",91.625
0,3,2,1,60,"6","3","FALSE",241.763888888889
0,3,2,1,60,"6","4","FALSE",226.083333333333
0,3,2,1,61,"1","0","FALSE",645.972222222222
0,3,2,1,61,"2","0","FALSE",1430.56944444444
0,3,2,1,61,"4","0","FALSE",566.816666666667
0,3,2,1,62,"1","0","FALSE",657.125
0,3,2,1,62,"2","0","FALSE",1390.65277777778
0,3,2,1,62,"4","0","FALSE",574.391666666667
0,3,2,1,63,"1","0","FALSE",667.486111111111
0,3,2,1,63,"2","0","FALSE",1448.625
0,3,2,1,63,"4","0","FALSE",585.766666666667
0,3,2,1,64,"1","0","FALSE",575.986111111111
0,3,2,1,64,"2","0","FALSE",1195.41666666667
0,3,2,1,64,"4","0","FALSE",494.675
0,3,2,1,65,"1","0","FALSE",611.138888888889
0,3,2,1,65,"2","0","FALSE",1303.47222222222
0,3,2,1,65,"4","0","FALSE",515.975
0,3,2,1,66,"1","0","FALSE",608.972222222222
0,3,2,1,66,"2","0","FALSE",1314.31944444444
0,3,2,1,66,"4","0","FALSE",510.908333333333
0,3,2,1,67,"1","0","FALSE",645.722222222222
0,3,2,1,67,"2","0","FALSE",1459.66666666667
0,3,2,1,67,"4","0","FALSE",548.016666666667
0,3,2,1,68,"1","0","FALSE",590.847222222222
0,3,2,1,68,"2","0","FALSE",1112.23611111111
0,3,2,1,68,"4","0","FALSE",503.983333333333
0,3,2,1,69,"1","0","FALSE",614.986111111111
0,3,2,1,69,"2","0","FALSE",1226.51388888889
0,3,2,1,69,"3","0","FALSE",189.888888888889
0,3,2,1,69,"4","0","FALSE",530.225
0,3,2,1,69,"5","0","FALSE",757.916666666667
0,3,2,1,70,"1","0","TRUE",554.041666666667
0,3,2,1,70,"1","2","TRUE",609.097222222222
0,3,2,1,70,"1","3","FALSE",642.652777777778
0,3,2,1,70,"1","4","FALSE",640.75
0,3,2,1,70,"2","0","FALSE",1231.48611111111
0,3,2,1,70,"3","0","TRUE",160.402777777778
0,3,2,1,70,"3","2","TRUE",152.611111111111
0,3,2,1,70,"3","3","FALSE",176.680555555556
0,3,2,1,70,"3","4","FALSE",190.083333333333
0,3,2,1,70,"4","0","TRUE",444.475
0,3,2,1,70,"4","2","TRUE",474.966666666667
0,3,2,1,70,"4","3","FALSE",571.833333333333
0,3,2,1,70,"4","4","FALSE",557.333333333333
0,3,2,1,70,"5","0","FALSE",760.361111111111
0,3,2,1,71,"2","0","FALSE",1345.88888888889
0,3,2,1,71,"5","0","FALSE",761.236111111111
0,3,2,1,72,"2","0","FALSE",1291.125
0,3,2,1,72,"5","0","FALSE",757.097222222222
0,3,2,1,73,"2","0","FALSE",1480.02777777778
0,3,2,1,73,"5","0","FALSE",729.430555555556
0,3,2,1,74,"2","0","FALSE",1425.48611111111
0,3,2,1,74,"5","0","FALSE",747.458333333333
0,3,2,1,75,"2","0","FALSE",1560.80555555556
0,3,2,1,75,"5","0","FALSE",756.75
0,3,2,1,76,"2","0","FALSE",1181.19444444444
0,3,2,1,76,"5","0","FALSE",743.763888888889
0,3,2,1,77,"2","0","FALSE",1324.95833333333
0,3,2,1,77,"5","0","FALSE",747.305555555556
0,3,2,1,78,"2","0","FALSE",1316.54166666667
0,3,2,1,78,"5","0","FALSE",740.722222222222
0,3,2,1,79,"2","0","FALSE",1484.55555555556
0,3,2,1,79,"5","0","FALSE",746.152777777778
0,3,2,1,80,"2","0","TRUE",127.430555555556
0,3,2,1,80,"2","2","TRUE",387.388888888889
0,3,2,1,80,"2","3","TRUE",134.611111111111
0,3,2,1,80,"2","4","FALSE",1394.84722222222
0,3,2,1,80,"5","0","TRUE",101.333333333333
0,3,2,1,80,"5","2","FALSE",798.625
0,3,2,1,80,"5","3","FALSE",782.888888888889
0,3,2,1,80,"5","4","TRUE",101.680555555556
1,1,2,0,59,"2","0","FALSE",35478.3125
1,1,2,0,59,"6","0","FALSE",1719.22916666667
1,1,2,0,60,"2","0","FALSE",24690.5
1,1,2,0,60,"6","0","FALSE",1196.5625
1,1,2,0,61,"2","0","FALSE",28678.2291666667
1,1,2,0,61,"6","0","FALSE",1255.95833333333
1,1,2,0,62,"2","0","FALSE",27198.8333333333
1,1,2,0,62,"6","0","FALSE",1202.75
1,1,2,0,63,"2","0","FALSE",29408.0625
1,1,2,0,63,"6","0","FALSE",1260.4375
1,1,2,0,64,"2","0","FALSE",21949.3541666667
1,1,2,0,64,"6","0","FALSE",1168.3125
1,1,2,0,65,"2","0","FALSE",26256.4583333333
1,1,2,0,65,"6","0","FALSE",1236.5
1,1,2,0,66,"2","0","FALSE",25369.6875
1,1,2,0,66,"6","0","FALSE",1279.89583333333
1,1,2,0,67,"2","0","FALSE",29925.0416666667
1,1,2,0,67,"6","0","FALSE",1483.79166666667
1,1,2,0,68,"2","0","FALSE",19271.2916666667
1,1,2,0,68,"6","0","FALSE",1078.77083333333
1,1,2,0,69,"2","0","FALSE",22848.75
1,1,2,0,69,"3","0","FALSE",465.854166666667
1,1,2,0,69,"6","0","FALSE",1105.9375
1,1,2,0,70,"2","0","FALSE",21991.9375
1,1,2,0,70,"3","0","FALSE",476.770833333333
1,1,2,0,70,"6","0","FALSE",1165.1875
1,1,2,0,71,"2","0","FALSE",25994
1,1,2,0,71,"3","0","FALSE",444.125
1,1,2,0,71,"6","0","FALSE",1328.125
1,1,2,0,72,"2","0","FALSE",24081.7708333333
1,1,2,0,72,"3","0","FALSE",462.270833333333
1,1,2,0,72,"6","0","FALSE",1268.47916666667
1,1,2,0,73,"2","0","FALSE",29144.6041666667
1,1,2,0,73,"3","0","FALSE",431.1875
1,1,2,0,73,"6","0","FALSE",1409.39583333333
1,1,2,0,74,"2","0","FALSE",27501.9375
1,1,2,0,74,"3","0","FALSE",467.5625
1,1,2,0,74,"6","0","FALSE",1352.95833333333
1,1,2,0,75,"2","0","FALSE",31956.75
1,1,2,0,75,"3","0","FALSE",442.375
1,1,2,0,75,"6","0","FALSE",1573.5625
1,1,2,0,76,"2","0","FALSE",20463.4375
1,1,2,0,76,"3","0","FALSE",480.791666666667
1,1,2,0,76,"6","0","FALSE",1128.02083333333
1,1,2,0,77,"2","0","FALSE",25185.4791666667
1,1,2,0,77,"3","0","FALSE",437.833333333333
1,1,2,0,77,"6","0","FALSE",1250.60416666667
1,1,2,0,78,"2","0","FALSE",23841.1458333333
1,1,2,0,78,"3","0","FALSE",478.083333333333
1,1,2,0,78,"6","0","FALSE",1217.3125
1,1,2,0,79,"2","0","FALSE",28590.2083333333
1,1,2,0,79,"3","0","FALSE",443.041666666667
1,1,2,0,79,"6","0","FALSE",1407.33333333333
1,1,2,0,80,"2","0","TRUE",5465.27083333333
1,1,2,0,80,"2","1","TRUE",5927.4375
1,1,2,0,80,"2","2","FALSE",27858.7708333333
1,1,2,0,80,"2","3","FALSE",29312.4791666667
1,1,2,0,80,"3","0","TRUE",92.3333333333333
1,1,2,0,80,"3","1","TRUE",91.3541666666667
1,1,2,0,80,"3","2","FALSE",477.708333333333
1,1,2,0,80,"3","3","FALSE",470.416666666667
1,1,2,0,80,"6","0","TRUE",333.020833333333
1,1,2,0,80,"6","1","TRUE",335.9375
1,1,2,0,80,"6","2","FALSE",1394.58333333333
1,1,2,0,80,"6","3","FALSE",1434.625
1,1,2,1,59,"2","0","FALSE",40353.8888888889
1,1,2,1,59,"6","0","FALSE",4476.41666666667
1,1,2,1,60,"2","0","FALSE",28170.1111111111
1,1,2,1,60,"6","0","FALSE",3407.33333333333
1,1,2,1,61,"2","0","FALSE",31292.3888888889
1,1,2,1,61,"6","0","FALSE",3331.22222222222
1,1,2,1,62,"2","0","FALSE",30704.2222222222
1,1,2,1,62,"6","0","FALSE",3418.72222222222
1,1,2,1,63,"2","0","FALSE",32320.6666666667
1,1,2,1,63,"6","0","FALSE",3304.41666666667
1,1,2,1,64,"2","0","FALSE",27020.2777777778
1,1,2,1,64,"6","0","FALSE",3243.83333333333
1,1,2,1,65,"2","0","FALSE",31143.4722222222
1,1,2,1,65,"6","0","FALSE",3505.77777777778
1,1,2,1,66,"2","0","FALSE",30776.7222222222
1,1,2,1,66,"6","0","FALSE",3630.58333333333
1,1,2,1,67,"2","0","FALSE",35298.8055555556
1,1,2,1,67,"6","0","FALSE",3996.94444444444
1,1,2,1,68,"2","0","FALSE",24020.1944444444
1,1,2,1,68,"6","0","FALSE",3008.13888888889
1,1,2,1,69,"2","0","FALSE",27255.5555555556
1,1,2,1,69,"3","0","FALSE",1560.30555555556
1,1,2,1,69,"5","0","FALSE",8812.22222222222
1,1,2,1,69,"6","0","FALSE",3094.97222222222
1,1,2,1,70,"2","0","FALSE",26999.6388888889
1,1,2,1,70,"3","0","FALSE",1557.05555555556
1,1,2,1,70,"5","0","FALSE",8872.25
1,1,2,1,70,"6","0","FALSE",3136.41666666667
1,1,2,1,71,"2","0","FALSE",31141.6111111111
1,1,2,1,71,"3","0","FALSE",1522.94444444444
1,1,2,1,71,"5","0","FALSE",8882.13888888889
1,1,2,1,71,"6","0","FALSE",3598.55555555556
1,1,2,1,72,"2","0","FALSE",29333.25
1,1,2,1,72,"3","0","FALSE",1521.55555555556
1,1,2,1,72,"5","0","FALSE",8841.11111111111
1,1,2,1,72,"6","0","FALSE",3397.22222222222
1,1,2,1,73,"2","0","FALSE",34668.2222222222
1,1,2,1,73,"3","0","FALSE",1317.83333333333
1,1,2,1,73,"5","0","FALSE",8684.02777777778
1,1,2,1,73,"6","0","FALSE",3898.38888888889
1,1,2,1,74,"2","0","FALSE",32808.0833333333
1,1,2,1,74,"3","0","FALSE",1506.94444444444
1,1,2,1,74,"5","0","FALSE",8988.38888888889
1,1,2,1,74,"6","0","FALSE",3705.80555555556
1,1,2,1,75,"2","0","FALSE",37421.1666666667
1,1,2,1,75,"3","0","FALSE",1392.25
1,1,2,1,75,"5","0","FALSE",8798.72222222222
1,1,2,1,75,"6","0","FALSE",4176.80555555556
1,1,2,1,76,"2","0","FALSE",25194.5555555556
1,1,2,1,76,"3","0","FALSE",1537.05555555556
1,1,2,1,76,"5","0","FALSE",8792.97222222222
1,1,2,1,76,"6","0","FALSE",3098.5
1,1,2,1,77,"2","0","FALSE",29798.0277777778
1,1,2,1,77,"3","0","FALSE",1323.61111111111
1,1,2,1,77,"5","0","FALSE",8758.44444444445
1,1,2,1,77,"6","0","FALSE",3379.25
1,1,2,1,78,"2","0","FALSE",28727.2222222222
1,1,2,1,78,"3","0","FALSE",1529.77777777778
1,1,2,1,78,"5","0","FALSE",8900.58333333333
1,1,2,1,78,"6","0","FALSE",3321.63888888889
1,1,2,1,79,"2","0","FALSE",33975.3333333333
1,1,2,1,79,"3","0","FALSE",1461.91666666667
1,1,2,1,79,"5","0","FALSE",8895.41666666667
1,1,2,1,79,"6","0","FALSE",3782.83333333333
1,1,2,1,80,"2","0","TRUE",6619.13888888889
1,1,2,1,80,"2","1","TRUE",6903.83333333333
1,1,2,1,80,"2","2","FALSE",33476.1388888889
1,1,2,1,80,"2","3","FALSE",35103.25
1,1,2,1,80,"2","4","FALSE",31005.8611111111
1,1,2,1,80,"3","0","TRUE",115.944444444444
1,1,2,1,80,"3","1","TRUE",115.666666666667
1,1,2,1,80,"3","2","FALSE",1461.94444444444
1,1,2,1,80,"3","3","FALSE",1380.36111111111
1,1,2,1,80,"3","4","FALSE",1556.55555555556
1,1,2,1,80,"5","0","FALSE",8744.08333333333
1,1,2,1,80,"6","0","TRUE",843.194444444444
1,1,2,1,80,"6","1","TRUE",882.888888888889
1,1,2,1,80,"6","2","FALSE",3754.13888888889
1,1,2,1,80,"6","3","FALSE",3872.19444444444
1,1,2,1,80,"6","4","FALSE",3535.5
1,1,2,1,81,"5","0","FALSE",8469.61111111111
1,1,2,1,82,"5","0","FALSE",8772.41666666667
1,1,2,1,83,"5","0","FALSE",8603.52777777778
1,1,2,1,84,"5","0","FALSE",8788.91666666667
1,1,2,1,85,"5","0","FALSE",8452.83333333333
1,1,2,1,86,"5","0","FALSE",8802.61111111111
1,1,2,1,87,"5","0","FALSE",8622.66666666667
1,1,2,1,88,"5","0","FALSE",8761.16666666667
1,1,2,1,89,"5","0","FALSE",8645.38888888889
1,1,2,1,90,"5","0","TRUE",81.8888888888889
1,1,2,1,90,"5","1","TRUE",1433.02777777778
1,1,2,1,90,"5","2","FALSE",10424.4722222222
1,1,2,1,90,"5","3","FALSE",9327.91666666667
1,1,2,1,90,"5","4","TRUE",84.7222222222222
1,2,2,0,59,"1","0","FALSE",15105.9166666667
1,2,2,0,59,"2","0","FALSE",35231.4333333333
1,2,2,0,59,"4","0","FALSE",951.833333333333
1,2,2,0,59,"6","0","FALSE",1703.1
1,2,2,0,60,"1","0","FALSE",10599.2777777778
1,2,2,0,60,"2","0","FALSE",24628.8833333333
1,2,2,0,60,"4","0","FALSE",882.333333333333
1,2,2,0,60,"6","0","FALSE",1168.71666666667
1,2,2,0,61,"1","0","FALSE",12062.3611111111
1,2,2,0,61,"2","0","FALSE",28386.7333333333
1,2,2,0,61,"4","0","FALSE",927.194444444444
1,2,2,0,61,"6","0","FALSE",1241.9
1,2,2,0,62,"1","0","FALSE",11614.9722222222
1,2,2,0,62,"2","0","FALSE",27104.5333333333
1,2,2,0,62,"4","0","FALSE",921.472222222222
1,2,2,0,62,"6","0","FALSE",1217.88333333333
1,2,2,0,63,"1","0","FALSE",12824.3888888889
1,2,2,0,63,"2","0","FALSE",29260.85
1,2,2,0,63,"4","0","FALSE",952.138888888889
1,2,2,0,63,"6","0","FALSE",1215.6
1,2,2,0,64,"1","0","FALSE",9324.94444444445
1,2,2,0,64,"2","0","FALSE",21867.4333333333
1,2,2,0,64,"4","0","FALSE",737.055555555556
1,2,2,0,64,"6","0","FALSE",1151.7
1,2,2,0,65,"1","0","FALSE",11079.1666666667
1,2,2,0,65,"2","0","FALSE",26133.1333333333
1,2,2,0,65,"4","0","FALSE",795.416666666667
1,2,2,0,65,"6","0","FALSE",1243.21666666667
1,2,2,0,66,"1","0","FALSE",10866.7777777778
1,2,2,0,66,"2","0","FALSE",25322.6
1,2,2,0,66,"4","0","FALSE",790.694444444444
1,2,2,0,66,"6","0","FALSE",1267.63333333333
1,2,2,0,67,"1","0","FALSE",12906.5277777778
1,2,2,0,67,"2","0","FALSE",29747.25
1,2,2,0,67,"4","0","FALSE",834.611111111111
1,2,2,0,67,"6","0","FALSE",1472.26666666667
1,2,2,0,68,"1","0","FALSE",8803.19444444445
1,2,2,0,68,"2","0","FALSE",19010.85
1,2,2,0,68,"4","0","FALSE",738.888888888889
1,2,2,0,68,"6","0","FALSE",1065.38333333333
1,2,2,0,69,"1","0","FALSE",10437.8333333333
1,2,2,0,69,"2","0","FALSE",22603.0833333333
1,2,2,0,69,"3","0","FALSE",455.283333333333
1,2,2,0,69,"4","0","FALSE",824.222222222222
1,2,2,0,69,"6","0","FALSE",1102.46666666667
1,2,2,0,70,"1","0","FALSE",10025.7777777778
1,2,2,0,70,"2","0","FALSE",21829.1833333333
1,2,2,0,70,"3","0","FALSE",473.516666666667
1,2,2,0,70,"4","0","TRUE",403.944444444444
1,2,2,0,70,"4","1","FALSE",908.25
1,2,2,0,70,"4","2","TRUE",462.444444444444
1,2,2,0,70,"4","3","FALSE",937.666666666667
1,2,2,0,70,"6","0","FALSE",1166.95
1,2,2,0,71,"1","0","FALSE",11753.9444444444
1,2,2,0,71,"2","0","FALSE",25648.3166666667
1,2,2,0,71,"3","0","FALSE",434.833333333333
1,2,2,0,71,"6","0","FALSE",1305
1,2,2,0,72,"1","0","FALSE",10487.5
1,2,2,0,72,"2","0","FALSE",23891.5166666667
1,2,2,0,72,"3","0","FALSE",456.683333333333
1,2,2,0,72,"6","0","FALSE",1227.06666666667
1,2,2,0,73,"1","0","FALSE",12919.1666666667
1,2,2,0,73,"2","0","FALSE",28885.4
1,2,2,0,73,"3","0","FALSE",414.85
1,2,2,0,73,"6","0","FALSE",1391.7
1,2,2,0,74,"1","0","FALSE",12246.8888888889
1,2,2,0,74,"2","0","FALSE",27252.7833333333
1,2,2,0,74,"3","0","FALSE",455.9
1,2,2,0,74,"6","0","FALSE",1324.88333333333
1,2,2,0,75,"1","0","FALSE",14634.2222222222
1,2,2,0,75,"2","0","FALSE",31755.55
1,2,2,0,75,"3","0","FALSE",427.35
1,2,2,0,75,"6","0","FALSE",1568.15
1,2,2,0,76,"1","0","FALSE",9649.30555555555
1,2,2,0,76,"2","0","FALSE",20316.65
1,2,2,0,76,"3","0","FALSE",460.05
1,2,2,0,76,"6","0","FALSE",1124.8
1,2,2,0,77,"1","0","FALSE",11680.2777777778
1,2,2,0,77,"2","0","FALSE",24790.2166666667
1,2,2,0,77,"3","0","FALSE",422.283333333333
1,2,2,0,77,"6","0","FALSE",1224.9
1,2,2,0,78,"1","0","FALSE",11226.25
1,2,2,0,78,"2","0","FALSE",23479
1,2,2,0,78,"3","0","FALSE",471.983333333333
1,2,2,0,78,"6","0","FALSE",1191.58333333333
1,2,2,0,79,"1","0","FALSE",13372.0833333333
1,2,2,0,79,"2","0","FALSE",28241.2666666667
1,2,2,0,79,"3","0","FALSE",434.45
1,2,2,0,79,"6","0","FALSE",1377.25
1,2,2,0,80,"1","0","FALSE",10009.2222222222
1,2,2,0,80,"2","0","TRUE",5507.5
1,2,2,0,80,"2","1","TRUE",5922.53333333333
1,2,2,0,80,"2","2","FALSE",27633.4333333333
1,2,2,0,80,"2","3","FALSE",29100.45
1,2,2,0,80,"3","0","TRUE",91.1
1,2,2,0,80,"3","1","TRUE",86.8833333333333
1,2,2,0,80,"3","2","FALSE",472.35
1,2,2,0,80,"3","3","FALSE",465.833333333333
1,2,2,0,80,"6","0","TRUE",324.35
1,2,2,0,80,"6","1","TRUE",334.1
1,2,2,0,80,"6","2","FALSE",1372.45
1,2,2,0,80,"6","3","FALSE",1422.13333333333
1,2,2,0,81,"1","0","FALSE",12243.3333333333
1,2,2,0,82,"1","0","FALSE",12013.6944444444
1,2,2,0,83,"1","0","FALSE",13958.7222222222
1,2,2,0,84,"1","0","FALSE",9265.69444444445
1,2,2,0,85,"1","0","FALSE",11109.9444444444
1,2,2,0,86,"1","0","FALSE",10743.1111111111
1,2,2,0,87,"1","0","FALSE",12694.2777777778
1,2,2,0,88,"1","0","FALSE",10967.3055555556
1,2,2,0,89,"1","0","FALSE",12809.3888888889
1,2,2,0,90,"1","0","TRUE",229.944444444444
1,2,2,0,90,"1","1","TRUE",5484.19444444444
1,2,2,0,90,"1","2","TRUE",248.027777777778
1,2,2,0,90,"1","3","FALSE",14678.4444444444
1,2,2,1,59,"1","0","FALSE",21354.875
1,2,2,1,59,"2","0","FALSE",40048.25
1,2,2,1,59,"4","0","FALSE",1250.375
1,2,2,1,59,"6","0","FALSE",4488.30952380952
1,2,2,1,60,"1","0","FALSE",16957.6666666667
1,2,2,1,60,"2","0","FALSE",28181.6547619048
1,2,2,1,60,"4","0","FALSE",1205.14583333333
1,2,2,1,60,"6","0","FALSE",3310.36904761905
1,2,2,1,61,"1","0","FALSE",17870.7083333333
1,2,2,1,61,"2","0","FALSE",31158.75
1,2,2,1,61,"4","0","FALSE",1200.20833333333
1,2,2,1,61,"6","0","FALSE",3308.2380952381
1,2,2,1,62,"1","0","FALSE",17725.5833333333
1,2,2,1,62,"2","0","FALSE",30506.2976190476
1,2,2,1,62,"4","0","FALSE",1215.79166666667
1,2,2,1,62,"6","0","FALSE",3405.11904761905
1,2,2,1,63,"1","0","FALSE",18380
1,2,2,1,63,"2","0","FALSE",31941.0238095238
1,2,2,1,63,"4","0","FALSE",1202.39583333333
1,2,2,1,63,"6","0","FALSE",3289.11904761905
1,2,2,1,64,"1","0","FALSE",15591.7916666667
1,2,2,1,64,"2","0","FALSE",26735.9166666667
1,2,2,1,64,"4","0","FALSE",1045.0625
1,2,2,1,64,"6","0","FALSE",3233.36904761905
1,2,2,1,65,"1","0","FALSE",17312.2083333333
1,2,2,1,65,"2","0","FALSE",30919.0595238095
1,2,2,1,65,"4","0","FALSE",1122.10416666667
1,2,2,1,65,"6","0","FALSE",3484.25
1,2,2,1,66,"1","0","FALSE",17394.375
1,2,2,1,66,"2","0","FALSE",30479.6904761905
1,2,2,1,66,"4","0","FALSE",1085.79166666667
1,2,2,1,66,"6","0","FALSE",3533.38095238095
1,2,2,1,67,"1","0","FALSE",19236.75
1,2,2,1,67,"2","0","FALSE",35290.0238095238
1,2,2,1,67,"4","0","FALSE",1169.58333333333
1,2,2,1,67,"6","0","FALSE",4002.7619047619
1,2,2,1,68,"1","0","FALSE",14948.9583333333
1,2,2,1,68,"2","0","FALSE",23673.7142857143
1,2,2,1,68,"4","0","FALSE",1063.45833333333
1,2,2,1,68,"6","0","FALSE",2943.96428571429
1,2,2,1,69,"1","0","FALSE",16339.3958333333
1,2,2,1,69,"2","0","FALSE",27162.2261904762
1,2,2,1,69,"3","0","FALSE",1518.96428571429
1,2,2,1,69,"4","0","FALSE",1115.29166666667
1,2,2,1,69,"5","0","FALSE",8747.29761904762
1,2,2,1,69,"6","0","FALSE",3066.70238095238
1,2,2,1,70,"1","0","FALSE",16229.9166666667
1,2,2,1,70,"2","0","FALSE",26857.6666666667
1,2,2,1,70,"3","0","FALSE",1506.70238095238
1,2,2,1,70,"4","0","TRUE",509.75
1,2,2,1,70,"4","1","FALSE",1185.95833333333
1,2,2,1,70,"4","2","TRUE",552.791666666667
1,2,2,1,70,"4","3","FALSE",1233.22916666667
1,2,2,1,70,"4","4","FALSE",1187.6875
1,2,2,1,70,"5","0","FALSE",8981.30952380952
1,2,2,1,70,"6","0","FALSE",3139.21428571429
1,2,2,1,71,"1","0","FALSE",17921.5208333333
1,2,2,1,71,"2","0","FALSE",31048.6547619048
1,2,2,1,71,"3","0","FALSE",1460.7380952381
1,2,2,1,71,"5","0","FALSE",8829.78571428571
1,2,2,1,71,"6","0","FALSE",3572.0119047619
1,2,2,1,72,"1","0","FALSE",17133.4375
1,2,2,1,72,"2","0","FALSE",28989.6071428571
1,2,2,1,72,"3","0","FALSE",1480.27380952381
1,2,2,1,72,"5","0","FALSE",8858.63095238095
1,2,2,1,72,"6","0","FALSE",3444.39285714286
1,2,2,1,73,"1","0","FALSE",19513.375
1,2,2,1,73,"2","0","FALSE",34327.7261904762
1,2,2,1,73,"3","0","FALSE",1297.5119047619
1,2,2,1,73,"5","0","FALSE",8621.40476190476
1,2,2,1,73,"6","0","FALSE",3830.36904761905
1,2,2,1,74,"1","0","FALSE",19059.1666666667
1,2,2,1,74,"2","0","FALSE",32804.5357142857
1,2,2,1,74,"3","0","FALSE",1477.05952380952
1,2,2,1,74,"5","0","FALSE",8958.75
1,2,2,1,74,"6","0","FALSE",3734.58333333333
1,2,2,1,75,"1","0","FALSE",21215.1041666667
1,2,2,1,75,"2","0","FALSE",37388.5238095238
1,2,2,1,75,"3","0","FALSE",1361.72619047619
1,2,2,1,75,"5","0","FALSE",8815.28571428571
1,2,2,1,75,"6","0","FALSE",4192.30952380952
1,2,2,1,76,"1","0","FALSE",15996.9166666667
1,2,2,1,76,"2","0","FALSE",25032.9285714286
1,2,2,1,76,"3","0","FALSE",1499.80952380952
1,2,2,1,76,"5","0","FALSE",8864.92857142857
1,2,2,1,76,"6","0","FALSE",3090.22619047619
1,2,2,1,77,"1","0","FALSE",17889.2708333333
1,2,2,1,77,"2","0","FALSE",29347.0952380952
1,2,2,1,77,"3","0","FALSE",1305.97619047619
1,2,2,1,77,"5","0","FALSE",8737.7619047619
1,2,2,1,77,"6","0","FALSE",3362.13095238095
1,2,2,1,78,"1","0","FALSE",17562.3541666667
1,2,2,1,78,"2","0","FALSE",28582.1666666667
1,2,2,1,78,"3","0","FALSE",1496.65476190476
1,2,2,1,78,"5","0","FALSE",8956.54761904762
1,2,2,1,78,"6","0","FALSE",3317.33333333333
1,2,2,1,79,"1","0","FALSE",19533.4791666667
1,2,2,1,79,"2","0","FALSE",33535.9404761905
1,2,2,1,79,"3","0","FALSE",1428.65476190476
1,2,2,1,79,"5","0","FALSE",8872.52380952381
1,2,2,1,79,"6","0","FALSE",3786.91666666667
1,2,2,1,80,"1","0","FALSE",16578.6666666667
1,2,2,1,80,"2","0","TRUE",6498.67857142857
1,2,2,1,80,"2","1","TRUE",6873.35714285714
1,2,2,1,80,"2","2","FALSE",33036.5119047619
1,2,2,1,80,"2","3","FALSE",34739.7857142857
1,2,2,1,80,"2","4","FALSE",30918.0119047619
1,2,2,1,80,"3","0","TRUE",115.52380952381
1,2,2,1,80,"3","1","TRUE",113.119047619048
1,2,2,1,80,"3","2","FALSE",1410.69047619048
1,2,2,1,80,"3","3","FALSE",1344.84523809524
1,2,2,1,80,"3","4","FALSE",1517.90476190476
1,2,2,1,80,"5","0","FALSE",8803.60714285714
1,2,2,1,80,"6","0","TRUE",820.821428571429
1,2,2,1,80,"6","1","TRUE",869.369047619048
1,2,2,1,80,"6","2","FALSE",3766.57142857143
1,2,2,1,80,"6","3","FALSE",3902.88095238095
1,2,2,1,80,"6","4","FALSE",3522.53571428571
1,2,2,1,81,"1","0","FALSE",18419.5625
1,2,2,1,81,"5","0","FALSE",8581.64285714286
1,2,2,1,82,"1","0","FALSE",18776.5416666667
1,2,2,1,82,"5","0","FALSE",8835.53571428571
1,2,2,1,83,"1","0","FALSE",20564.2291666667
1,2,2,1,83,"5","0","FALSE",8636.14285714286
1,2,2,1,84,"1","0","FALSE",15453.6458333333
1,2,2,1,84,"5","0","FALSE",8829.80952380952
1,2,2,1,85,"1","0","FALSE",16927.2083333333
1,2,2,1,85,"5","0","FALSE",8580.04761904762
1,2,2,1,86,"1","0","FALSE",17082.9583333333
1,2,2,1,86,"5","0","FALSE",8876.03571428571
1,2,2,1,87,"1","0","FALSE",19013.9166666667
1,2,2,1,87,"5","0","FALSE",8657.70238095238
1,2,2,1,88,"1","0","FALSE",17723.7291666667
1,2,2,1,88,"5","0","FALSE",8813.0119047619
1,2,2,1,89,"1","0","FALSE",19083.8333333333
1,2,2,1,89,"5","0","FALSE",8585.39285714286
1,2,2,1,90,"1","0","TRUE",309.666666666667
1,2,2,1,90,"1","1","TRUE",8595.3125
1,2,2,1,90,"1","2","TRUE",320.979166666667
1,2,2,1,90,"1","3","FALSE",22622.4791666667
1,2,2,1,90,"1","4","FALSE",20320.8125
1,2,2,1,90,"5","0","TRUE",85.0595238095238
1,2,2,1,90,"5","1","TRUE",1434.70238095238
1,2,2,1,90,"5","2","FALSE",10322.0238095238
1,2,2,1,90,"5","3","FALSE",9352.27380952381
1,2,2,1,90,"5","4","TRUE",84.3333333333333
1,3,2,0,59,"1","0","FALSE",15616.4722222222
1,3,2,0,59,"2","0","FALSE",35540.3611111111
1,3,2,0,59,"4","0","FALSE",955.583333333333
1,3,2,0,59,"6","0","FALSE",1669.52777777778
1,3,2,0,60,"1","0","FALSE",11175.3888888889
1,3,2,0,60,"2","0","FALSE",24691.5833333333
1,3,2,0,60,"4","0","FALSE",865.416666666667
1,3,2,0,60,"6","0","FALSE",1151.44444444444
1,3,2,0,61,"1","0","FALSE",12617.8611111111
1,3,2,0,61,"2","0","FALSE",28355.4166666667
1,3,2,0,61,"4","0","FALSE",942.833333333333
1,3,2,0,61,"6","0","FALSE",1202.30555555556
1,3,2,0,62,"1","0","FALSE",12199.2222222222
1,3,2,0,62,"2","0","FALSE",27208.7777777778
1,3,2,0,62,"4","0","FALSE",895.354166666667
1,3,2,0,62,"6","0","FALSE",1187
1,3,2,0,63,"1","0","FALSE",13551.1111111111
1,3,2,0,63,"2","0","FALSE",29315.25
1,3,2,0,63,"4","0","FALSE",937.208333333333
1,3,2,0,63,"6","0","FALSE",1189.97222222222
1,3,2,0,64,"1","0","FALSE",9836.80555555555
1,3,2,0,64,"2","0","FALSE",22089
1,3,2,0,64,"4","0","FALSE",732.270833333333
1,3,2,0,64,"6","0","FALSE",1128.83333333333
1,3,2,0,65,"1","0","FALSE",11583.4444444444
1,3,2,0,65,"2","0","FALSE",26265.8055555556
1,3,2,0,65,"4","0","FALSE",782.145833333333
1,3,2,0,65,"6","0","FALSE",1176.36111111111
1,3,2,0,66,"1","0","FALSE",11422.2777777778
1,3,2,0,66,"2","0","FALSE",25321.3055555556
1,3,2,0,66,"4","0","FALSE",783.1875
1,3,2,0,66,"6","0","FALSE",1220.30555555556
1,3,2,0,67,"1","0","FALSE",13531.25
1,3,2,0,67,"2","0","FALSE",29873.5277777778
1,3,2,0,67,"4","0","FALSE",833.958333333333
1,3,2,0,67,"6","0","FALSE",1416.88888888889
1,3,2,0,68,"1","0","FALSE",9286.66666666667
1,3,2,0,68,"2","0","FALSE",19076.6944444444
1,3,2,0,68,"4","0","FALSE",728.1875
1,3,2,0,68,"6","0","FALSE",1046.19444444444
1,3,2,0,69,"1","0","FALSE",11055.8888888889
1,3,2,0,69,"2","0","FALSE",22697.6111111111
1,3,2,0,69,"3","0","FALSE",443.25
1,3,2,0,69,"4","0","FALSE",802.333333333333
1,3,2,0,69,"6","0","FALSE",1052.61111111111
1,3,2,0,70,"1","0","FALSE",10450.5277777778
1,3,2,0,70,"2","0","FALSE",21929.4166666667
1,3,2,0,70,"3","0","FALSE",465.972222222222
1,3,2,0,70,"4","0","TRUE",395.916666666667
1,3,2,0,70,"4","1","FALSE",880.020833333333
1,3,2,0,70,"4","2","TRUE",441.625
1,3,2,0,70,"4","3","FALSE",878.125
1,3,2,0,70,"6","0","FALSE",1110.58333333333
1,3,2,0,71,"1","0","FALSE",12458
1,3,2,0,71,"2","0","FALSE",25939.3611111111
1,3,2,0,71,"3","0","FALSE",428.277777777778
1,3,2,0,71,"6","0","FALSE",1260.63888888889
1,3,2,0,72,"1","0","FALSE",11022.75
1,3,2,0,72,"2","0","FALSE",24071.8333333333
1,3,2,0,72,"3","0","FALSE",469.25
1,3,2,0,72,"6","0","FALSE",1221.05555555556
1,3,2,0,73,"1","0","FALSE",13506.5833333333
1,3,2,0,73,"2","0","FALSE",28894.0833333333
1,3,2,0,73,"3","0","FALSE",426.388888888889
1,3,2,0,73,"6","0","FALSE",1336.75
1,3,2,0,74,"1","0","FALSE",12918.1388888889
1,3,2,0,74,"2","0","FALSE",27155.75
1,3,2,0,74,"3","0","FALSE",459.416666666667
1,3,2,0,74,"6","0","FALSE",1288.13888888889
1,3,2,0,75,"1","0","FALSE",15422.6944444444
1,3,2,0,75,"2","0","FALSE",31665.0277777778
1,3,2,0,75,"3","0","FALSE",430.638888888889
1,3,2,0,75,"6","0","FALSE",1523.63888888889
1,3,2,0,76,"1","0","FALSE",10253.8055555556
1,3,2,0,76,"2","0","FALSE",20351.9166666667
1,3,2,0,76,"3","0","FALSE",453.666666666667
1,3,2,0,76,"6","0","FALSE",1087.58333333333
1,3,2,0,77,"1","0","FALSE",12401.0277777778
1,3,2,0,77,"2","0","FALSE",24788.5555555556
1,3,2,0,77,"3","0","FALSE",430.833333333333
1,3,2,0,77,"6","0","FALSE",1179.33333333333
1,3,2,0,78,"1","0","FALSE",11979.5833333333
1,3,2,0,78,"2","0","FALSE",23830.25
1,3,2,0,78,"3","0","FALSE",472
1,3,2,0,78,"6","0","FALSE",1148.38888888889
1,3,2,0,79,"1","0","FALSE",14080.8055555556
1,3,2,0,79,"2","0","FALSE",28434.25
1,3,2,0,79,"3","0","FALSE",429.111111111111
1,3,2,0,79,"6","0","FALSE",1353.36111111111
1,3,2,0,80,"1","0","FALSE",10660.1666666667
1,3,2,0,80,"2","0","TRUE",5495.16666666667
1,3,2,0,80,"2","1","TRUE",5947.33333333333
1,3,2,0,80,"2","2","FALSE",27606.8888888889
1,3,2,0,80,"2","3","FALSE",29080.3611111111
1,3,2,0,80,"3","0","TRUE",95.8333333333333
1,3,2,0,80,"3","1","TRUE",88.3055555555556
1,3,2,0,80,"3","2","FALSE",477
1,3,2,0,80,"3","3","FALSE",458.527777777778
1,3,2,0,80,"6","0","TRUE",318.222222222222
1,3,2,0,80,"6","1","TRUE",330.083333333333
1,3,2,0,80,"6","2","FALSE",1344.44444444444
1,3,2,0,80,"6","3","FALSE",1410.41666666667
1,3,2,0,81,"1","0","FALSE",13030.0555555556
1,3,2,0,82,"1","0","FALSE",12591.7222222222
1,3,2,0,83,"1","0","FALSE",14871.6666666667
1,3,2,0,84,"1","0","FALSE",9822.13888888889
1,3,2,0,85,"1","0","FALSE",11790.1111111111
1,3,2,0,86,"1","0","FALSE",11445.4166666667
1,3,2,0,87,"1","0","FALSE",13361.4444444444
1,3,2,0,88,"1","0","FALSE",11642.3611111111
1,3,2,0,89,"1","0","FALSE",13410.5
1,3,2,0,90,"1","0","TRUE",249.416666666667
1,3,2,0,90,"1","1","TRUE",5746.38888888889
1,3,2,0,90,"1","2","TRUE",262.416666666667
1,3,2,0,90,"1","3","FALSE",15422.5555555556
1,3,2,1,59,"1","0","FALSE",22241.4895833333
1,3,2,1,59,"2","0","FALSE",43504.25
1,3,2,1,59,"4","0","FALSE",1271.925
1,3,2,1,59,"6","0","FALSE",3848.63541666667
1,3,2,1,60,"1","0","FALSE",17555.9895833333
1,3,2,1,60,"2","0","FALSE",30808.2604166667
1,3,2,1,60,"4","0","FALSE",1229.13333333333
1,3,2,1,60,"6","0","FALSE",2850.375
1,3,2,1,61,"1","0","FALSE",18410.9270833333
1,3,2,1,61,"2","0","FALSE",34018.71875
1,3,2,1,61,"4","0","FALSE",1251.65
1,3,2,1,61,"6","0","FALSE",2844.26041666667
1,3,2,1,62,"1","0","FALSE",18422.4583333333
1,3,2,1,62,"2","0","FALSE",33321.9375
1,3,2,1,62,"4","0","FALSE",1250.88333333333
1,3,2,1,62,"6","0","FALSE",2946.09375
1,3,2,1,63,"1","0","FALSE",19091.4895833333
1,3,2,1,63,"2","0","FALSE",34839.0833333333
1,3,2,1,63,"4","0","FALSE",1261.80833333333
1,3,2,1,63,"6","0","FALSE",2846.80208333333
1,3,2,1,64,"1","0","FALSE",15925.6458333333
1,3,2,1,64,"2","0","FALSE",29289.0520833333
1,3,2,1,64,"4","0","FALSE",1092.00833333333
1,3,2,1,64,"6","0","FALSE",2796.11458333333
1,3,2,1,65,"1","0","FALSE",17885.1041666667
1,3,2,1,65,"2","0","FALSE",33805.53125
1,3,2,1,65,"4","0","FALSE",1133.71666666667
1,3,2,1,65,"6","0","FALSE",2996.38541666667
1,3,2,1,66,"1","0","FALSE",17973.4895833333
1,3,2,1,66,"2","0","FALSE",33244.0625
1,3,2,1,66,"4","0","FALSE",1127.18333333333
1,3,2,1,66,"6","0","FALSE",3051.92708333333
1,3,2,1,67,"1","0","FALSE",19897.8541666667
1,3,2,1,67,"2","0","FALSE",38404.65625
1,3,2,1,67,"4","0","FALSE",1185.36666666667
1,3,2,1,67,"6","0","FALSE",3455.42708333333
1,3,2,1,68,"1","0","FALSE",15442.3854166667
1,3,2,1,68,"2","0","FALSE",25661.40625
1,3,2,1,68,"4","0","FALSE",1088.00833333333
1,3,2,1,68,"6","0","FALSE",2576.04166666667
1,3,2,1,69,"1","0","FALSE",16789.8854166667
1,3,2,1,69,"2","0","FALSE",29482.25
1,3,2,1,69,"3","0","FALSE",1637.90625
1,3,2,1,69,"4","0","FALSE",1140.56666666667
1,3,2,1,69,"5","0","FALSE",8347.3125
1,3,2,1,69,"6","0","FALSE",2660.57291666667
1,3,2,1,70,"1","0","FALSE",16715.8541666667
1,3,2,1,70,"2","0","FALSE",28977.28125
1,3,2,1,70,"3","0","FALSE",1639.66666666667
1,3,2,1,70,"4","0","TRUE",522.133333333333
1,3,2,1,70,"4","1","FALSE",1214.09166666667
1,3,2,1,70,"4","2","TRUE",569.058333333333
1,3,2,1,70,"4","3","FALSE",1231.84166666667
1,3,2,1,70,"4","4","FALSE",1222.74166666667
1,3,2,1,70,"5","0","FALSE",8528.96875
1,3,2,1,70,"6","0","FALSE",2689.3125
1,3,2,1,71,"1","0","FALSE",18425.8645833333
1,3,2,1,71,"2","0","FALSE",33755.6354166667
1,3,2,1,71,"3","0","FALSE",1593.34375
1,3,2,1,71,"5","0","FALSE",8466.04166666667
1,3,2,1,71,"6","0","FALSE",3058.8125
1,3,2,1,72,"1","0","FALSE",17625.03125
1,3,2,1,72,"2","0","FALSE",31622.7604166667
1,3,2,1,72,"3","0","FALSE",1576.14583333333
1,3,2,1,72,"5","0","FALSE",8473.48958333333
1,3,2,1,72,"6","0","FALSE",2930.70833333333
1,3,2,1,73,"1","0","FALSE",20074.7708333333
1,3,2,1,73,"2","0","FALSE",37136.0104166667
1,3,2,1,73,"3","0","FALSE",1386.875
1,3,2,1,73,"5","0","FALSE",8337.5625
1,3,2,1,73,"6","0","FALSE",3309.47916666667
1,3,2,1,74,"1","0","FALSE",19798
1,3,2,1,74,"2","0","FALSE",35315.3541666667
1,3,2,1,74,"3","0","FALSE",1593.33333333333
1,3,2,1,74,"5","0","FALSE",8546.19791666667
1,3,2,1,74,"6","0","FALSE",3221.35416666667
1,3,2,1,75,"1","0","FALSE",21968.9166666667
1,3,2,1,75,"2","0","FALSE",40599.90625
1,3,2,1,75,"3","0","FALSE",1457.72916666667
1,3,2,1,75,"5","0","FALSE",8369.58333333333
1,3,2,1,75,"6","0","FALSE",3624.72916666667
1,3,2,1,76,"1","0","FALSE",16303.5208333333
1,3,2,1,76,"2","0","FALSE",27220.1666666667
1,3,2,1,76,"3","0","FALSE",1642.22916666667
1,3,2,1,76,"5","0","FALSE",8486.65625
1,3,2,1,76,"6","0","FALSE",2641.86458333333
1,3,2,1,77,"1","0","FALSE",18302.125
1,3,2,1,77,"2","0","FALSE",32210.0625
1,3,2,1,77,"3","0","FALSE",1381.33333333333
1,3,2,1,77,"5","0","FALSE",8339.51041666667
1,3,2,1,77,"6","0","FALSE",2900.58333333333
1,3,2,1,78,"1","0","FALSE",18168.90625
1,3,2,1,78,"2","0","FALSE",31247.8333333333
1,3,2,1,78,"3","0","FALSE",1617.19791666667
1,3,2,1,78,"5","0","FALSE",8533.53125
1,3,2,1,78,"6","0","FALSE",2862.46875
1,3,2,1,79,"1","0","FALSE",20222.6458333333
1,3,2,1,79,"2","0","FALSE",36771.8854166667
1,3,2,1,79,"3","0","FALSE",1547.47916666667
1,3,2,1,79,"5","0","FALSE",8481.3125
1,3,2,1,79,"6","0","FALSE",3270.66666666667
1,3,2,1,80,"1","0","FALSE",17158.7708333333
1,3,2,1,80,"2","0","TRUE",7088.23958333333
1,3,2,1,80,"2","1","TRUE",7486.73958333333
1,3,2,1,80,"2","2","FALSE",35904.1979166667
1,3,2,1,80,"2","3","FALSE",37800.4791666667
1,3,2,1,80,"2","4","FALSE",33720.28125
1,3,2,1,80,"3","0","TRUE",118.291666666667
1,3,2,1,80,"3","1","TRUE",117.395833333333
1,3,2,1,80,"3","2","FALSE",1543.1875
1,3,2,1,80,"3","3","FALSE",1483.91666666667
1,3,2,1,80,"3","4","FALSE",1648.66666666667
1,3,2,1,80,"5","0","FALSE",8388.55208333333
1,3,2,1,80,"6","0","TRUE",710.635416666667
1,3,2,1,80,"6","1","TRUE",746.489583333333
1,3,2,1,80,"6","2","FALSE",3254
1,3,2,1,80,"6","3","FALSE",3327.46875
1,3,2,1,80,"6","4","FALSE",3026.79166666667
1,3,2,1,81,"1","0","FALSE",19181.8958333333
1,3,2,1,81,"5","0","FALSE",8155.47916666667
1,3,2,1,82,"1","0","FALSE",19397.1666666667
1,3,2,1,82,"5","0","FALSE",8396.27083333333
1,3,2,1,83,"1","0","FALSE",21139.03125
1,3,2,1,83,"5","0","FALSE",8272.55208333333
1,3,2,1,84,"1","0","FALSE",16014.875
1,3,2,1,84,"5","0","FALSE",8400.10416666667
1,3,2,1,85,"1","0","FALSE",17491.75
1,3,2,1,85,"5","0","FALSE",8175.76041666667
1,3,2,1,86,"1","0","FALSE",17693.1979166667
1,3,2,1,86,"5","0","FALSE",8440.375
1,3,2,1,87,"1","0","FALSE",19670.2395833333
1,3,2,1,87,"5","0","FALSE",8238.22916666667
1,3,2,1,88,"1","0","FALSE",18298.1041666667
1,3,2,1,88,"5","0","FALSE",8391.19791666667
1,3,2,1,89,"1","0","FALSE",19702.9479166667
1,3,2,1,89,"5","0","FALSE",8222.3125
1,3,2,1,90,"1","0","TRUE",317.875
1,3,2,1,90,"1","1","TRUE",8812.60416666667
1,3,2,1,90,"1","2","TRUE",328.520833333333
1,3,2,1,90,"1","3","FALSE",23376.2604166667
1,3,2,1,90,"1","4","FALSE",20750.8229166667
1,3,2,1,90,"5","0","TRUE",87.3229166666667
1,3,2,1,90,"5","1","TRUE",1393.29166666667
1,3,2,1,90,"5","2","FALSE",9928.38541666667
1,3,2,1,90,"5","3","FALSE",8954.65625
1,3,2,1,90,"5","4","TRUE",84.3958333333333
2,1,2,0,59,"2","0","FALSE",35755
2,1,2,0,59,"6","0","FALSE",1673.5
2,1,2,0,60,"2","0","FALSE",24781.75
2,1,2,0,60,"6","0","FALSE",1158.83333333333
2,1,2,0,61,"2","0","FALSE",28482.1666666667
2,1,2,0,61,"6","0","FALSE",1181.75
2,1,2,0,62,"2","0","FALSE",26956.8333333333
2,1,2,0,62,"6","0","FALSE",1173.33333333333
2,1,2,0,63,"2","0","FALSE",29323
2,1,2,0,63,"6","0","FALSE",1227.16666666667
2,1,2,0,64,"2","0","FALSE",22294.8333333333
2,1,2,0,64,"6","0","FALSE",1133.58333333333
2,1,2,0,65,"2","0","FALSE",26628.6666666667
2,1,2,0,65,"6","0","FALSE",1208.83333333333
2,1,2,0,66,"2","0","FALSE",25153
2,1,2,0,66,"6","0","FALSE",1270.41666666667
2,1,2,0,67,"2","0","FALSE",29889.9166666667
2,1,2,0,67,"6","0","FALSE",1438.16666666667
2,1,2,0,68,"2","0","FALSE",19152.25
2,1,2,0,68,"6","0","FALSE",1062.75
2,1,2,0,69,"2","0","FALSE",22427.6666666667
2,1,2,0,69,"3","0","FALSE",486.916666666667
2,1,2,0,69,"6","0","FALSE",1097.16666666667
2,1,2,0,70,"2","0","FALSE",21676.8333333333
2,1,2,0,70,"3","0","FALSE",460.583333333333
2,1,2,0,70,"6","0","FALSE",1090.5
2,1,2,0,71,"2","0","FALSE",25634.4166666667
2,1,2,0,71,"3","0","FALSE",420.083333333333
2,1,2,0,71,"6","0","FALSE",1257.66666666667
2,1,2,0,72,"2","0","FALSE",23956.5
2,1,2,0,72,"3","0","FALSE",459.916666666667
2,1,2,0,72,"6","0","FALSE",1200.25
2,1,2,0,73,"2","0","FALSE",29160.3333333333
2,1,2,0,73,"3","0","FALSE",411.083333333333
2,1,2,0,73,"6","0","FALSE",1366.75
2,1,2,0,74,"2","0","FALSE",27455.9166666667
2,1,2,0,74,"3","0","FALSE",436.416666666667
2,1,2,0,74,"6","0","FALSE",1341.25
2,1,2,0,75,"2","0","FALSE",32026.6666666667
2,1,2,0,75,"3","0","FALSE",414.416666666667
2,1,2,0,75,"6","0","FALSE",1554.41666666667
2,1,2,0,76,"2","0","FALSE",20526.75
2,1,2,0,76,"3","0","FALSE",430.25
2,1,2,0,76,"6","0","FALSE",1098.25
2,1,2,0,77,"2","0","FALSE",25060.8333333333
2,1,2,0,77,"3","0","FALSE",407.166666666667
2,1,2,0,77,"6","0","FALSE",1192.91666666667
2,1,2,0,78,"2","0","FALSE",23851.3333333333
2,1,2,0,78,"3","0","FALSE",448.083333333333
2,1,2,0,78,"6","0","FALSE",1167.16666666667
2,1,2,0,79,"2","0","FALSE",28519.5833333333
2,1,2,0,79,"3","0","FALSE",413
2,1,2,0,79,"6","0","FALSE",1378.58333333333
2,1,2,0,80,"2","0","TRUE",5475
2,1,2,0,80,"2","1","TRUE",5869.5
2,1,2,0,80,"2","2","FALSE",27715.25
2,1,2,0,80,"2","3","FALSE",29122.75
2,1,2,0,80,"3","0","TRUE",91.25
2,1,2,0,80,"3","1","TRUE",82.4166666666667
2,1,2,0,80,"3","2","FALSE",447.916666666667
2,1,2,0,80,"3","3","FALSE",451.416666666667
2,1,2,0,80,"6","0","TRUE",325.75
2,1,2,0,80,"6","1","TRUE",331.5
2,1,2,0,80,"6","2","FALSE",1340.83333333333
2,1,2,0,80,"6","3","FALSE",1409.41666666667
2,1,2,1,59,"2","0","FALSE",42828.4166666667
2,1,2,1,59,"6","0","FALSE",4314.66666666667
2,1,2,1,60,"2","0","FALSE",30182.0833333333
2,1,2,1,60,"6","0","FALSE",3177.83333333333
2,1,2,1,61,"2","0","FALSE",33404.0833333333
2,1,2,1,61,"6","0","FALSE",3254.83333333333
2,1,2,1,62,"2","0","FALSE",32211.5833333333
2,1,2,1,62,"6","0","FALSE",3325.75
2,1,2,1,63,"2","0","FALSE",33379.6666666667
2,1,2,1,63,"6","0","FALSE",3197.83333333333
2,1,2,1,64,"2","0","FALSE",28715.4166666667
2,1,2,1,64,"6","0","FALSE",3165.66666666667
2,1,2,1,65,"2","0","FALSE",32717.75
2,1,2,1,65,"6","0","FALSE",3429.58333333333
2,1,2,1,66,"2","0","FALSE",32885.3333333333
2,1,2,1,66,"6","0","FALSE",3583.08333333333
2,1,2,1,67,"2","0","FALSE",37601.0833333333
2,1,2,1,67,"6","0","FALSE",3890.75
2,1,2,1,68,"2","0","FALSE",25074
2,1,2,1,68,"6","0","FALSE",2857.83333333333
2,1,2,1,69,"2","0","FALSE",28568.4166666667
2,1,2,1,69,"3","0","FALSE",1621.91666666667
2,1,2,1,69,"5","0","FALSE",8394.08333333333
2,1,2,1,69,"6","0","FALSE",2958.25
2,1,2,1,70,"2","0","FALSE",28439.8333333333
2,1,2,1,70,"3","0","FALSE",1565.91666666667
2,1,2,1,70,"5","0","FALSE",8681.33333333333
2,1,2,1,70,"6","0","FALSE",3067.08333333333
2,1,2,1,71,"2","0","FALSE",33140.5833333333
2,1,2,1,71,"3","0","FALSE",1531.08333333333
2,1,2,1,71,"5","0","FALSE",8412.41666666667
2,1,2,1,71,"6","0","FALSE",3482
2,1,2,1,72,"2","0","FALSE",30985.5833333333
2,1,2,1,72,"3","0","FALSE",1497.91666666667
2,1,2,1,72,"5","0","FALSE",8523.08333333333
2,1,2,1,72,"6","0","FALSE",3339.58333333333
2,1,2,1,73,"2","0","FALSE",35913.5833333333
2,1,2,1,73,"3","0","FALSE",1333.91666666667
2,1,2,1,73,"5","0","FALSE",8370.75
2,1,2,1,73,"6","0","FALSE",3627.16666666667
2,1,2,1,74,"2","0","FALSE",34507.4166666667
2,1,2,1,74,"3","0","FALSE",1544.66666666667
2,1,2,1,74,"5","0","FALSE",8782.08333333333
2,1,2,1,74,"6","0","FALSE",3690.33333333333
2,1,2,1,75,"2","0","FALSE",39183.25
2,1,2,1,75,"3","0","FALSE",1412.16666666667
2,1,2,1,75,"5","0","FALSE",8354.75
2,1,2,1,75,"6","0","FALSE",4084.58333333333
2,1,2,1,76,"2","0","FALSE",26510.5833333333
2,1,2,1,76,"3","0","FALSE",1571.5
2,1,2,1,76,"5","0","FALSE",8483.75
2,1,2,1,76,"6","0","FALSE",2987.5
2,1,2,1,77,"2","0","FALSE",31579.1666666667
2,1,2,1,77,"3","0","FALSE",1305.5
2,1,2,1,77,"5","0","FALSE",8498.58333333333
2,1,2,1,77,"6","0","FALSE",3395.5
2,1,2,1,78,"2","0","FALSE",30459.6666666667
2,1,2,1,78,"3","0","FALSE",1524.83333333333
2,1,2,1,78,"5","0","FALSE",8561.08333333333
2,1,2,1,78,"6","0","FALSE",3289
2,1,2,1,79,"2","0","FALSE",36146.6666666667
2,1,2,1,79,"3","0","FALSE",1464.5
2,1,2,1,79,"5","0","FALSE",8499.16666666667
2,1,2,1,79,"6","0","FALSE",3667.66666666667
2,1,2,1,80,"2","0","TRUE",7014.58333333333
2,1,2,1,80,"2","1","TRUE",7174.25
2,1,2,1,80,"2","2","FALSE",34963.3333333333
2,1,2,1,80,"2","3","FALSE",36701.4166666667
2,1,2,1,80,"2","4","FALSE",33539.25
2,1,2,1,80,"3","0","TRUE",113
2,1,2,1,80,"3","1","TRUE",117.583333333333
2,1,2,1,80,"3","2","FALSE",1460.66666666667
2,1,2,1,80,"3","3","FALSE",1456.16666666667
2,1,2,1,80,"3","4","FALSE",1558.91666666667
2,1,2,1,80,"5","0","FALSE",8380.25
2,1,2,1,80,"6","0","TRUE",788.5
2,1,2,1,80,"6","1","TRUE",812.583333333333
2,1,2,1,80,"6","2","FALSE",3810.08333333333
2,1,2,1,80,"6","3","FALSE",3711.58333333333
2,1,2,1,80,"6","4","FALSE",3471.08333333333
2,1,2,1,81,"5","0","FALSE",8214.25
2,1,2,1,82,"5","0","FALSE",8497.66666666667
2,1,2,1,83,"5","0","FALSE",8228.91666666667
2,1,2,1,84,"5","0","FALSE",8498.66666666667
2,1,2,1,85,"5","0","FALSE",8122.41666666667
2,1,2,1,86,"5","0","FALSE",8572.58333333333
2,1,2,1,87,"5","0","FALSE",8308
2,1,2,1,88,"5","0","FALSE",8415.58333333333
2,1,2,1,89,"5","0","FALSE",8359.08333333333
2,1,2,1,90,"5","0","TRUE",80
2,1,2,1,90,"5","1","TRUE",1391.75
2,1,2,1,90,"5","2","FALSE",10032.3333333333
2,1,2,1,90,"5","3","FALSE",9084.66666666667
2,1,2,1,90,"5","4","TRUE",79.5833333333333
2,2,2,0,59,"1","0","FALSE",14748.1666666667
2,2,2,0,59,"2","0","FALSE",33163.8333333333
2,2,2,0,59,"4","0","FALSE",922
2,2,2,0,59,"6","0","FALSE",1540.29166666667
2,2,2,0,60,"1","0","FALSE",10433.75
2,2,2,0,60,"2","0","FALSE",23042.4166666667
2,2,2,0,60,"4","0","FALSE",811.083333333333
2,2,2,0,60,"6","0","FALSE",1051.91666666667
2,2,2,0,61,"1","0","FALSE",11982
2,2,2,0,61,"2","0","FALSE",26609.2916666667
2,2,2,0,61,"4","0","FALSE",875.666666666667
2,2,2,0,61,"6","0","FALSE",1100.08333333333
2,2,2,0,62,"1","0","FALSE",11697.75
2,2,2,0,62,"2","0","FALSE",25565.75
2,2,2,0,62,"4","0","FALSE",836.916666666667
2,2,2,0,62,"6","0","FALSE",1090.54166666667
2,2,2,0,63,"1","0","FALSE",12834.0833333333
2,2,2,0,63,"2","0","FALSE",27743
2,2,2,0,63,"4","0","FALSE",888.916666666667
2,2,2,0,63,"6","0","FALSE",1104.95833333333
2,2,2,0,64,"1","0","FALSE",9322.08333333333
2,2,2,0,64,"2","0","FALSE",20705.6666666667
2,2,2,0,64,"4","0","FALSE",666
2,2,2,0,64,"6","0","FALSE",1060.75
2,2,2,0,65,"1","0","FALSE",11026.9166666667
2,2,2,0,65,"2","0","FALSE",24777.4583333333
2,2,2,0,65,"4","0","FALSE",757.416666666667
2,2,2,0,65,"6","0","FALSE",1110.375
2,2,2,0,66,"1","0","FALSE",10886.5
2,2,2,0,66,"2","0","FALSE",23904.125
2,2,2,0,66,"4","0","FALSE",726.583333333333
2,2,2,0,66,"6","0","FALSE",1149.83333333333
2,2,2,0,67,"1","0","FALSE",12782.75
2,2,2,0,67,"2","0","FALSE",28080
2,2,2,0,67,"4","0","FALSE",820.416666666667
2,2,2,0,67,"6","0","FALSE",1332.70833333333
2,2,2,0,68,"1","0","FALSE",8944.5
2,2,2,0,68,"2","0","FALSE",18005.5833333333
2,2,2,0,68,"4","0","FALSE",681.25
2,2,2,0,68,"6","0","FALSE",938.875
2,2,2,0,69,"1","0","FALSE",10370.5
2,2,2,0,69,"2","0","FALSE",21278.3333333333
2,2,2,0,69,"3","0","FALSE",405.708333333333
2,2,2,0,69,"4","0","FALSE",766.083333333333
2,2,2,0,69,"6","0","FALSE",981.916666666667
2,2,2,0,70,"1","0","FALSE",9982.58333333333
2,2,2,0,70,"2","0","FALSE",20737.0416666667
2,2,2,0,70,"3","0","FALSE",436.125
2,2,2,0,70,"4","0","TRUE",376.25
2,2,2,0,70,"4","1","FALSE",809.083333333333
2,2,2,0,70,"4","2","TRUE",425.333333333333
2,2,2,0,70,"4","3","FALSE",833.25
2,2,2,0,70,"6","0","FALSE",1035.45833333333
2,2,2,0,71,"1","0","FALSE",11735.5
2,2,2,0,71,"2","0","FALSE",24188.0416666667
2,2,2,0,71,"3","0","FALSE",415.208333333333
2,2,2,0,71,"6","0","FALSE",1168.04166666667
2,2,2,0,72,"1","0","FALSE",10504.3333333333
2,2,2,0,72,"2","0","FALSE",22835.3333333333
2,2,2,0,72,"3","0","FALSE",419.375
2,2,2,0,72,"6","0","FALSE",1103.75
2,2,2,0,73,"1","0","FALSE",12757.4166666667
2,2,2,0,73,"2","0","FALSE",27327.0416666667
2,2,2,0,73,"3","0","FALSE",379.416666666667
2,2,2,0,73,"6","0","FALSE",1257.125
2,2,2,0,74,"1","0","FALSE",12222.25
2,2,2,0,74,"2","0","FALSE",25621.875
2,2,2,0,74,"3","0","FALSE",427.875
2,2,2,0,74,"6","0","FALSE",1195.16666666667
2,2,2,0,75,"1","0","FALSE",14429.25
2,2,2,0,75,"2","0","FALSE",29918.3333333333
2,2,2,0,75,"3","0","FALSE",391.291666666667
2,2,2,0,75,"6","0","FALSE",1431.375
2,2,2,0,76,"1","0","FALSE",9703.75
2,2,2,0,76,"2","0","FALSE",19022.8333333333
2,2,2,0,76,"3","0","FALSE",431.708333333333
2,2,2,0,76,"6","0","FALSE",1012.79166666667
2,2,2,0,77,"1","0","FALSE",11617.25
2,2,2,0,77,"2","0","FALSE",23229
2,2,2,0,77,"3","0","FALSE",391.833333333333
2,2,2,0,77,"6","0","FALSE",1109.5
2,2,2,0,78,"1","0","FALSE",11085.5833333333
2,2,2,0,78,"2","0","FALSE",22187.9583333333
2,2,2,0,78,"3","0","FALSE",424.875
2,2,2,0,78,"6","0","FALSE",1056.20833333333
2,2,2,0,79,"1","0","FALSE",13463.0833333333
2,2,2,0,79,"2","0","FALSE",26623.9166666667
2,2,2,0,79,"3","0","FALSE",396.75
2,2,2,0,79,"6","0","FALSE",1240.91666666667
2,2,2,0,80,"1","0","FALSE",10028
2,2,2,0,80,"2","0","TRUE",5081.08333333333
2,2,2,0,80,"2","1","TRUE",5542.70833333333
2,2,2,0,80,"2","2","FALSE",26016.5833333333
2,2,2,0,80,"2","3","FALSE",27359.4166666667
2,2,2,0,80,"3","0","TRUE",87.7083333333333
2,2,2,0,80,"3","1","TRUE",89.6666666666667
2,2,2,0,80,"3","2","FALSE",426.791666666667
2,2,2,0,80,"3","3","FALSE",423.375
2,2,2,0,80,"6","0","TRUE",303.541666666667
2,2,2,0,80,"6","1","TRUE",309.791666666667
2,2,2,0,80,"6","2","FALSE",1233.70833333333
2,2,2,0,80,"6","3","FALSE",1262.25
2,2,2,0,81,"1","0","FALSE",12340.75
2,2,2,0,82,"1","0","FALSE",12061.5833333333
2,2,2,0,83,"1","0","FALSE",13873
2,2,2,0,84,"1","0","FALSE",9268.41666666667
2,2,2,0,85,"1","0","FALSE",11154
2,2,2,0,86,"1","0","FALSE",10856.75
2,2,2,0,87,"1","0","FALSE",12635.25
2,2,2,0,88,"1","0","FALSE",11153.5833333333
2,2,2,0,89,"1","0","FALSE",12801.3333333333
2,2,2,0,90,"1","0","TRUE",230.833333333333
2,2,2,0,90,"1","1","TRUE",5558.58333333333
2,2,2,0,90,"1","2","TRUE",243.666666666667
2,2,2,0,90,"1","3","FALSE",14637.8333333333
2,2,2,1,59,"1","0","FALSE",22291.5
2,2,2,1,59,"2","0","FALSE",44130.5208333333
2,2,2,1,59,"4","0","FALSE",1197.20833333333
2,2,2,1,59,"6","0","FALSE",3525.97916666667
2,2,2,1,60,"1","0","FALSE",17613.75
2,2,2,1,60,"2","0","FALSE",31169.3125
2,2,2,1,60,"4","0","FALSE",1132.58333333333
2,2,2,1,60,"6","0","FALSE",2588.60416666667
2,2,2,1,61,"1","0","FALSE",18322.2083333333
2,2,2,1,61,"2","0","FALSE",34348.7916666667
2,2,2,1,61,"4","0","FALSE",1173.08333333333
2,2,2,1,61,"6","0","FALSE",2594.5625
2,2,2,1,62,"1","0","FALSE",18136.9583333333
2,2,2,1,62,"2","0","FALSE",33680.8541666667
2,2,2,1,62,"4","0","FALSE",1216.375
2,2,2,1,62,"6","0","FALSE",2680.625
2,2,2,1,63,"1","0","FALSE",18951.6666666667
2,2,2,1,63,"2","0","FALSE",35216.1041666667
2,2,2,1,63,"4","0","FALSE",1187.91666666667
2,2,2,1,63,"6","0","FALSE",2597.1875
2,2,2,1,64,"1","0","FALSE",15883.3333333333
2,2,2,1,64,"2","0","FALSE",29650.3958333333
2,2,2,1,64,"4","0","FALSE",1022.70833333333
2,2,2,1,64,"6","0","FALSE",2532.5625
2,2,2,1,65,"1","0","FALSE",17781.9583333333
2,2,2,1,65,"2","0","FALSE",34141.375
2,2,2,1,65,"4","0","FALSE",1085.91666666667
2,2,2,1,65,"6","0","FALSE",2731.25
2,2,2,1,66,"1","0","FALSE",17875.7916666667
2,2,2,1,66,"2","0","FALSE",33591.5208333333
2,2,2,1,66,"4","0","FALSE",1085.41666666667
2,2,2,1,66,"6","0","FALSE",2796.0625
2,2,2,1,67,"1","0","FALSE",19775.4583333333
2,2,2,1,67,"2","0","FALSE",38630.1458333333
2,2,2,1,67,"4","0","FALSE",1133.16666666667
2,2,2,1,67,"6","0","FALSE",3128.375
2,2,2,1,68,"1","0","FALSE",15346.4166666667
2,2,2,1,68,"2","0","FALSE",25870.5416666667
2,2,2,1,68,"4","0","FALSE",1033.5
2,2,2,1,68,"6","0","FALSE",2300.70833333333
2,2,2,1,69,"1","0","FALSE",16949.7083333333
2,2,2,1,69,"2","0","FALSE",29665.3958333333
2,2,2,1,69,"3","0","FALSE",1764.41666666667
2,2,2,1,69,"4","0","FALSE",1096.95833333333
2,2,2,1,69,"5","0","FALSE",7337.4375
2,2,2,1,69,"6","0","FALSE",2414.1875
2,2,2,1,70,"1","0","FALSE",16981.875
2,2,2,1,70,"2","0","FALSE",29255.0208333333
2,2,2,1,70,"3","0","FALSE",1713.66666666667
2,2,2,1,70,"4","0","TRUE",485.333333333333
2,2,2,1,70,"4","1","FALSE",1176.70833333333
2,2,2,1,70,"4","2","TRUE",534.291666666667
2,2,2,1,70,"4","3","FALSE",1168.66666666667
2,2,2,1,70,"4","4","FALSE",1150.58333333333
2,2,2,1,70,"5","0","FALSE",7495.79166666667
2,2,2,1,70,"6","0","FALSE",2435.10416666667
2,2,2,1,71,"1","0","FALSE",18651.7916666667
2,2,2,1,71,"2","0","FALSE",33973.8125
2,2,2,1,71,"3","0","FALSE",1641.41666666667
2,2,2,1,71,"5","0","FALSE",7383.66666666667
2,2,2,1,71,"6","0","FALSE",2783.39583333333
2,2,2,1,72,"1","0","FALSE",17699.5416666667
2,2,2,1,72,"2","0","FALSE",31886.7708333333
2,2,2,1,72,"3","0","FALSE",1622.41666666667
2,2,2,1,72,"5","0","FALSE",7410.22916666667
2,2,2,1,72,"6","0","FALSE",2704.58333333333
2,2,2,1,73,"1","0","FALSE",19987.1666666667
2,2,2,1,73,"2","0","FALSE",37423.2916666667
2,2,2,1,73,"3","0","FALSE",1421.5
2,2,2,1,73,"5","0","FALSE",7266.52083333333
2,2,2,1,73,"6","0","FALSE",3036.72916666667
2,2,2,1,74,"1","0","FALSE",19541.8333333333
2,2,2,1,74,"2","0","FALSE",35631.75
2,2,2,1,74,"3","0","FALSE",1626.14583333333
2,2,2,1,74,"5","0","FALSE",7416.75
2,2,2,1,74,"6","0","FALSE",2920.22916666667
2,2,2,1,75,"1","0","FALSE",21973.0833333333
2,2,2,1,75,"2","0","FALSE",40673.1041666667
2,2,2,1,75,"3","0","FALSE",1561.41666666667
2,2,2,1,75,"5","0","FALSE",7293.27083333333
2,2,2,1,75,"6","0","FALSE",3277.35416666667
2,2,2,1,76,"1","0","FALSE",16215.625
2,2,2,1,76,"2","0","FALSE",27507.5208333333
2,2,2,1,76,"3","0","FALSE",1708.25
2,2,2,1,76,"5","0","FALSE",7321
2,2,2,1,76,"6","0","FALSE",2416.27083333333
2,2,2,1,77,"1","0","FALSE",18192.25
2,2,2,1,77,"2","0","FALSE",32427.9166666667
2,2,2,1,77,"3","0","FALSE",1510.04166666667
2,2,2,1,77,"5","0","FALSE",7256.79166666667
2,2,2,1,77,"6","0","FALSE",2638.91666666667
2,2,2,1,78,"1","0","FALSE",18093.9166666667
2,2,2,1,78,"2","0","FALSE",31308.3125
2,2,2,1,78,"3","0","FALSE",1745.91666666667
2,2,2,1,78,"5","0","FALSE",7469.58333333333
2,2,2,1,78,"6","0","FALSE",2579.6875
2,2,2,1,79,"1","0","FALSE",20010.8333333333
2,2,2,1,79,"2","0","FALSE",36975.9791666667
2,2,2,1,79,"3","0","FALSE",1651.375
2,2,2,1,79,"5","0","FALSE",7374.6875
2,2,2,1,79,"6","0","FALSE",2968.83333333333
2,2,2,1,80,"1","0","FALSE",17135.5416666667
2,2,2,1,80,"2","0","TRUE",7150.85416666667
2,2,2,1,80,"2","1","TRUE",7453.5625
2,2,2,1,80,"2","2","FALSE",36147.1458333333
2,2,2,1,80,"2","3","FALSE",37931.75
2,2,2,1,80,"2","4","FALSE",34097.2916666667
2,2,2,1,80,"3","0","TRUE",131.854166666667
2,2,2,1,80,"3","1","TRUE",127.0625
2,2,2,1,80,"3","2","FALSE",1650.33333333333
2,2,2,1,80,"3","3","FALSE",1520.16666666667
2,2,2,1,80,"3","4","FALSE",1726.70833333333
2,2,2,1,80,"5","0","FALSE",7354.375
2,2,2,1,80,"6","0","TRUE",653.229166666667
2,2,2,1,80,"6","1","TRUE",683.604166666667
2,2,2,1,80,"6","2","FALSE",2982.25
2,2,2,1,80,"6","3","FALSE",3077.64583333333
2,2,2,1,80,"6","4","FALSE",2810.6875
2,2,2,1,81,"1","0","FALSE",19010.7916666667
2,2,2,1,81,"5","0","FALSE",7129.70833333333
2,2,2,1,82,"1","0","FALSE",19555.5416666667
2,2,2,1,82,"5","0","FALSE",7332.95833333333
2,2,2,1,83,"1","0","FALSE",21271.1666666667
2,2,2,1,83,"5","0","FALSE",7117.4375
2,2,2,1,84,"1","0","FALSE",15953.1666666667
2,2,2,1,84,"5","0","FALSE",7283.27083333333
2,2,2,1,85,"1","0","FALSE",17470.5416666667
2,2,2,1,85,"5","0","FALSE",7043.9375
2,2,2,1,86,"1","0","FALSE",17668.4166666667
2,2,2,1,86,"5","0","FALSE",7397.625
2,2,2,1,87,"1","0","FALSE",19462.2083333333
2,2,2,1,87,"5","0","FALSE",7221.85416666667
2,2,2,1,88,"1","0","FALSE",18201.5416666667
2,2,2,1,88,"5","0","FALSE",7256
2,2,2,1,89,"1","0","FALSE",19728.1666666667
2,2,2,1,89,"5","0","FALSE",7156.58333333333
2,2,2,1,90,"1","0","TRUE",312.166666666667
2,2,2,1,90,"1","1","TRUE",8841.125
2,2,2,1,90,"1","2","TRUE",333.5
2,2,2,1,90,"1","3","FALSE",23464.6666666667
2,2,2,1,90,"1","4","FALSE",20901
2,2,2,1,90,"5","0","TRUE",82.0208333333333
2,2,2,1,90,"5","1","TRUE",1217.52083333333
2,2,2,1,90,"5","2","FALSE",8721.14583333333
2,2,2,1,90,"5","3","FALSE",7825.625
2,2,2,1,90,"5","4","TRUE",78.7916666666667
2,3,2,0,59,"1","0","FALSE",16739.0416666667
2,3,2,0,59,"2","0","FALSE",39670.0416666667
2,3,2,0,59,"4","0","FALSE",842.958333333333
2,3,2,0,59,"6","0","FALSE",1327.20833333333
2,3,2,0,60,"1","0","FALSE",11861
2,3,2,0,60,"2","0","FALSE",27674.0833333333
2,3,2,0,60,"4","0","FALSE",773.25
2,3,2,0,60,"6","0","FALSE",903.708333333333
2,3,2,0,61,"1","0","FALSE",13457.7083333333
2,3,2,0,61,"2","0","FALSE",31959.4583333333
2,3,2,0,61,"4","0","FALSE",803.083333333333
2,3,2,0,61,"6","0","FALSE",943.583333333333
2,3,2,0,62,"1","0","FALSE",13017.0833333333
2,3,2,0,62,"2","0","FALSE",30492.9583333333
2,3,2,0,62,"4","0","FALSE",780.416666666667
2,3,2,0,62,"6","0","FALSE",930.5
2,3,2,0,63,"1","0","FALSE",14320.5833333333
2,3,2,0,63,"2","0","FALSE",32823
2,3,2,0,63,"4","0","FALSE",829.958333333333
2,3,2,0,63,"6","0","FALSE",972.75
2,3,2,0,64,"1","0","FALSE",10384.0833333333
2,3,2,0,64,"2","0","FALSE",24532.5416666667
2,3,2,0,64,"4","0","FALSE",635.291666666667
2,3,2,0,64,"6","0","FALSE",908.958333333333
2,3,2,0,65,"1","0","FALSE",12516.625
2,3,2,0,65,"2","0","FALSE",29321.5
2,3,2,0,65,"4","0","FALSE",690.708333333333
2,3,2,0,65,"6","0","FALSE",965.833333333333
2,3,2,0,66,"1","0","FALSE",12204.7916666667
2,3,2,0,66,"2","0","FALSE",28473.4166666667
2,3,2,0,66,"4","0","FALSE",692.333333333333
2,3,2,0,66,"6","0","FALSE",999.791666666667
2,3,2,0,67,"1","0","FALSE",14441.75
2,3,2,0,67,"2","0","FALSE",33097.2083333333
2,3,2,0,67,"4","0","FALSE",743.041666666667
2,3,2,0,67,"6","0","FALSE",1141.08333333333
2,3,2,0,68,"1","0","FALSE",10022.3333333333
2,3,2,0,68,"2","0","FALSE",21373.375
2,3,2,0,68,"4","0","FALSE",640.041666666667
2,3,2,0,68,"6","0","FALSE",835.208333333333
2,3,2,0,69,"1","0","FALSE",11647.5
2,3,2,0,69,"2","0","FALSE",25577.6666666667
2,3,2,0,69,"3","0","FALSE",457.625
2,3,2,0,69,"4","0","FALSE",717.5
2,3,2,0,69,"6","0","FALSE",864.166666666667
2,3,2,0,70,"1","0","FALSE",11435.2916666667
2,3,2,0,70,"2","0","FALSE",24643.9166666667
2,3,2,0,70,"3","0","FALSE",447.208333333333
2,3,2,0,70,"4","0","TRUE",357.708333333333
2,3,2,0,70,"4","1","FALSE",785.083333333333
2,3,2,0,70,"4","2","TRUE",394
2,3,2,0,70,"4","3","FALSE",775.625
2,3,2,0,70,"6","0","FALSE",893.666666666667
2,3,2,0,71,"1","0","FALSE",13227.2083333333
2,3,2,0,71,"2","0","FALSE",29357.125
2,3,2,0,71,"3","0","FALSE",420
2,3,2,0,71,"6","0","FALSE",1013.66666666667
2,3,2,0,72,"1","0","FALSE",11892.4166666667
2,3,2,0,72,"2","0","FALSE",27071.3333333333
2,3,2,0,72,"3","0","FALSE",430.041666666667
2,3,2,0,72,"6","0","FALSE",968.041666666667
2,3,2,0,73,"1","0","FALSE",14420
2,3,2,0,73,"2","0","FALSE",32429.625
2,3,2,0,73,"3","0","FALSE",410.208333333333
2,3,2,0,73,"6","0","FALSE",1094.125
2,3,2,0,74,"1","0","FALSE",13831.8333333333
2,3,2,0,74,"2","0","FALSE",30254
2,3,2,0,74,"3","0","FALSE",446.583333333333
2,3,2,0,74,"6","0","FALSE",1022.75
2,3,2,0,75,"1","0","FALSE",16537.9583333333
2,3,2,0,75,"2","0","FALSE",35396.9583333333
2,3,2,0,75,"3","0","FALSE",412.916666666667
2,3,2,0,75,"6","0","FALSE",1230.04166666667
2,3,2,0,76,"1","0","FALSE",10863.75
2,3,2,0,76,"2","0","FALSE",22905.7916666667
2,3,2,0,76,"3","0","FALSE",434.583333333333
2,3,2,0,76,"6","0","FALSE",873.875
2,3,2,0,77,"1","0","FALSE",13256.2916666667
2,3,2,0,77,"2","0","FALSE",27642.2083333333
2,3,2,0,77,"3","0","FALSE",409.833333333333
2,3,2,0,77,"6","0","FALSE",957.416666666667
2,3,2,0,78,"1","0","FALSE",12714.4583333333
2,3,2,0,78,"2","0","FALSE",26386
2,3,2,0,78,"3","0","FALSE",452.541666666667
2,3,2,0,78,"6","0","FALSE",955.041666666667
2,3,2,0,79,"1","0","FALSE",14992.7083333333
2,3,2,0,79,"2","0","FALSE",31569.7083333333
2,3,2,0,79,"3","0","FALSE",425.375
2,3,2,0,79,"6","0","FALSE",1097.95833333333
2,3,2,0,80,"1","0","FALSE",11213.2083333333
2,3,2,0,80,"2","0","TRUE",6111.83333333333
2,3,2,0,80,"2","1","TRUE",6569.08333333333
2,3,2,0,80,"2","2","FALSE",30916.5416666667
2,3,2,0,80,"2","3","FALSE",32575.2083333333
2,3,2,0,80,"3","0","TRUE",91.5416666666667
2,3,2,0,80,"3","1","TRUE",84.8333333333333
2,3,2,0,80,"3","2","FALSE",442.75
2,3,2,0,80,"3","3","FALSE",447.416666666667
2,3,2,0,80,"6","0","TRUE",272.458333333333
2,3,2,0,80,"6","1","TRUE",271.666666666667
2,3,2,0,80,"6","2","FALSE",1069.95833333333
2,3,2,0,80,"6","3","FALSE",1118.79166666667
2,3,2,0,81,"1","0","FALSE",13723.625
2,3,2,0,82,"1","0","FALSE",13424.25
2,3,2,0,83,"1","0","FALSE",15716.8333333333
2,3,2,0,84,"1","0","FALSE",10541.5416666667
2,3,2,0,85,"1","0","FALSE",12536.2083333333
2,3,2,0,86,"1","0","FALSE",12223.1666666667
2,3,2,0,87,"1","0","FALSE",14295.25
2,3,2,0,88,"1","0","FALSE",12440.375
2,3,2,0,89,"1","0","FALSE",14557.25
2,3,2,0,90,"1","0","TRUE",249.666666666667
2,3,2,0,90,"1","1","TRUE",6126.125
2,3,2,0,90,"1","2","TRUE",272.291666666667
2,3,2,0,90,"1","3","FALSE",16347.2083333333
2,3,2,1,59,"1","0","FALSE",19136.6333333333
2,3,2,1,59,"2","0","FALSE",41602.1666666667
2,3,2,1,59,"4","0","FALSE",1290.48333333333
2,3,2,1,59,"6","0","FALSE",4739.6
2,3,2,1,60,"1","0","FALSE",15103.5583333333
2,3,2,1,60,"2","0","FALSE",29371.2666666667
2,3,2,1,60,"4","0","FALSE",1222.025
2,3,2,1,60,"6","0","FALSE",3536.18333333333
2,3,2,1,61,"1","0","FALSE",15871.1
2,3,2,1,61,"2","0","FALSE",32508.3666666667
2,3,2,1,61,"4","0","FALSE",1259.89166666667
2,3,2,1,61,"6","0","FALSE",3492.425
2,3,2,1,62,"1","0","FALSE",15812.3166666667
2,3,2,1,62,"2","0","FALSE",32002.175
2,3,2,1,62,"4","0","FALSE",1244.69166666667
2,3,2,1,62,"6","0","FALSE",3671.95833333333
2,3,2,1,63,"1","0","FALSE",16262.9666666667
2,3,2,1,63,"2","0","FALSE",33387.8083333333
2,3,2,1,63,"4","0","FALSE",1237.49166666667
2,3,2,1,63,"6","0","FALSE",3537.38333333333
2,3,2,1,64,"1","0","FALSE",13685.8666666667
2,3,2,1,64,"2","0","FALSE",27994.025
2,3,2,1,64,"4","0","FALSE",1070.53333333333
2,3,2,1,64,"6","0","FALSE",3491.35
2,3,2,1,65,"1","0","FALSE",15329.4833333333
2,3,2,1,65,"2","0","FALSE",32508.4166666667
2,3,2,1,65,"4","0","FALSE",1133.9
2,3,2,1,65,"6","0","FALSE",3687.50833333333
2,3,2,1,66,"1","0","FALSE",15472.7416666667
2,3,2,1,66,"2","0","FALSE",31910.6416666667
2,3,2,1,66,"4","0","FALSE",1118.9
2,3,2,1,66,"6","0","FALSE",3769.2
2,3,2,1,67,"1","0","FALSE",17152.6166666667
2,3,2,1,67,"2","0","FALSE",36755.1
2,3,2,1,67,"4","0","FALSE",1193.68333333333
2,3,2,1,67,"6","0","FALSE",4251.225
2,3,2,1,68,"1","0","FALSE",13173.7833333333
2,3,2,1,68,"2","0","FALSE",24726.775
2,3,2,1,68,"4","0","FALSE",1087.6
2,3,2,1,68,"6","0","FALSE",3200.975
2,3,2,1,69,"1","0","FALSE",14430.0416666667
2,3,2,1,69,"2","0","FALSE",28220.525
2,3,2,1,69,"3","0","FALSE",1715.25
2,3,2,1,69,"4","0","FALSE",1159.31666666667
2,3,2,1,69,"5","0","FALSE",7877.80833333333
2,3,2,1,69,"6","0","FALSE",3274.65
2,3,2,1,70,"1","0","FALSE",14385.0916666667
2,3,2,1,70,"2","0","FALSE",27941.7
2,3,2,1,70,"3","0","FALSE",1696.575
2,3,2,1,70,"4","0","TRUE",527.166666666667
2,3,2,1,70,"4","1","FALSE",1237.525
2,3,2,1,70,"4","2","TRUE",583.25
2,3,2,1,70,"4","3","FALSE",1266.425
2,3,2,1,70,"4","4","FALSE",1243.83333333333
2,3,2,1,70,"5","0","FALSE",8058.69166666667
2,3,2,1,70,"6","0","FALSE",3312.725
2,3,2,1,71,"1","0","FALSE",15919.775
2,3,2,1,71,"2","0","FALSE",32261.175
2,3,2,1,71,"3","0","FALSE",1663.95
2,3,2,1,71,"5","0","FALSE",7922.225
2,3,2,1,71,"6","0","FALSE",3734.4
2,3,2,1,72,"1","0","FALSE",15199.9166666667
2,3,2,1,72,"2","0","FALSE",30267.55
2,3,2,1,72,"3","0","FALSE",1622.39166666667
2,3,2,1,72,"5","0","FALSE",7953.23333333333
2,3,2,1,72,"6","0","FALSE",3604.44166666667
2,3,2,1,73,"1","0","FALSE",17220.925
2,3,2,1,73,"2","0","FALSE",35555.8083333333
2,3,2,1,73,"3","0","FALSE",1445.50833333333
2,3,2,1,73,"5","0","FALSE",7801.85833333333
2,3,2,1,73,"6","0","FALSE",4094
2,3,2,1,74,"1","0","FALSE",16957.4166666667
2,3,2,1,74,"2","0","FALSE",33842.8333333333
2,3,2,1,74,"3","0","FALSE",1632.35
2,3,2,1,74,"5","0","FALSE",8071.125
2,3,2,1,74,"6","0","FALSE",4024.11666666667
2,3,2,1,75,"1","0","FALSE",18952.5333333333
2,3,2,1,75,"2","0","FALSE",38762.8416666667
2,3,2,1,75,"3","0","FALSE",1540.6
2,3,2,1,75,"5","0","FALSE",7875.50833333333
2,3,2,1,75,"6","0","FALSE",4453.78333333333
2,3,2,1,76,"1","0","FALSE",14045.3666666667
2,3,2,1,76,"2","0","FALSE",26250.525
2,3,2,1,76,"3","0","FALSE",1667.4
2,3,2,1,76,"5","0","FALSE",7937.20833333333
2,3,2,1,76,"6","0","FALSE",3242.74166666667
2,3,2,1,77,"1","0","FALSE",15737.0916666667
2,3,2,1,77,"2","0","FALSE",30761.5666666667
2,3,2,1,77,"3","0","FALSE",1461.9
2,3,2,1,77,"5","0","FALSE",7835.65
2,3,2,1,77,"6","0","FALSE",3556.11666666667
2,3,2,1,78,"1","0","FALSE",15636.925
2,3,2,1,78,"2","0","FALSE",29784.7666666667
2,3,2,1,78,"3","0","FALSE",1702.175
2,3,2,1,78,"5","0","FALSE",8030.86666666667
2,3,2,1,78,"6","0","FALSE",3555.66666666667
2,3,2,1,79,"1","0","FALSE",17386.6333333333
2,3,2,1,79,"2","0","FALSE",34993.5166666667
2,3,2,1,79,"3","0","FALSE",1619.99166666667
2,3,2,1,79,"5","0","FALSE",7956.01666666667
2,3,2,1,79,"6","0","FALSE",4051.89166666667
2,3,2,1,80,"1","0","FALSE",14721.075
2,3,2,1,80,"2","0","TRUE",6826.71666666667
2,3,2,1,80,"2","1","TRUE",7162.425
2,3,2,1,80,"2","2","FALSE",34314.5666666667
2,3,2,1,80,"2","3","FALSE",36101.85
2,3,2,1,80,"2","4","FALSE",32349.9416666667
2,3,2,1,80,"3","0","TRUE",125.516666666667
2,3,2,1,80,"3","1","TRUE",123.25
2,3,2,1,80,"3","2","FALSE",1601.30833333333
2,3,2,1,80,"3","3","FALSE",1525.90833333333
2,3,2,1,80,"3","4","FALSE",1725.80833333333
2,3,2,1,80,"5","0","FALSE",7918.48333333333
2,3,2,1,80,"6","0","TRUE",879.675
2,3,2,1,80,"6","1","TRUE",914.875
2,3,2,1,80,"6","2","FALSE",3993.55
2,3,2,1,80,"6","3","FALSE",4093.28333333333
2,3,2,1,80,"6","4","FALSE",3755.75833333333
2,3,2,1,81,"1","0","FALSE",16501.1166666667
2,3,2,1,81,"5","0","FALSE",7633.04166666667
2,3,2,1,82,"1","0","FALSE",16757.5916666667
2,3,2,1,82,"5","0","FALSE",7966.075
2,3,2,1,83,"1","0","FALSE",18241.95
2,3,2,1,83,"5","0","FALSE",7776.91666666667
2,3,2,1,84,"1","0","FALSE",13713.0333333333
2,3,2,1,84,"5","0","FALSE",7921.88333333333
2,3,2,1,85,"1","0","FALSE",15027.5666666667
2,3,2,1,85,"5","0","FALSE",7660.59166666667
2,3,2,1,86,"1","0","FALSE",15241.5333333333
2,3,2,1,86,"5","0","FALSE",7981.43333333333
2,3,2,1,87,"1","0","FALSE",16924.2583333333
2,3,2,1,87,"5","0","FALSE",7745.39166666667
2,3,2,1,88,"1","0","FALSE",15732.175
2,3,2,1,88,"5","0","FALSE",7837.23333333333
2,3,2,1,89,"1","0","FALSE",16876.1583333333
2,3,2,1,89,"5","0","FALSE",7748.01666666667
2,3,2,1,90,"1","0","TRUE",279.65
2,3,2,1,90,"1","1","TRUE",7642.65
2,3,2,1,90,"1","2","TRUE",290.65
2,3,2,1,90,"1","3","FALSE",20243.15
2,3,2,1,90,"1","4","FALSE",17944.7166666667
2,3,2,1,90,"5","0","TRUE",82.425
2,3,2,1,90,"5","1","TRUE",1316.98333333333
2,3,2,1,90,"5","2","FALSE",9365.45
2,3,2,1,90,"5","3","FALSE",8474.025
2,3,2,1,90,"5","4","TRUE",82.0083333333333
